kroA200 heuristic results iteration 12:
1 84 118
2 0 174
3 52 196
4 39 155
5 11 179
6 45 130
7 28 188
8 17 141
9 48 107
10 92 191
11 3 100
12 59 162
13 13 105
14 35 148
15 56 189
16 73 109
17 99 183
18 32 171
19 44 120
20 80 173
21 96 158
22 9 116
23 91 114
24 98 110
25 18 131
26 65 190
27 43 197
28 62 122
29 15 144
30 50 146
31 36 192
32 60 127
33 25 166
34 77 157
35 8 160
36 81 124
37 6 180
38 31 168
39 23 172
40 26 149
41 14 143
42 12 101
43 78 153
44 63 139
45 19 163
46 54 167
47 41 184
48 66 138
49 30 129
50 46 195
51 5 177
52 53 151
53 74 104
54 21 136
55 7 132
56 16 175
57 24 112
58 89 194
59 33 181
60 57 147
61 97 199
62 87 170
63 27 140
64 38 113
65 37 102
66 70 145
67 55 128
68 4 133
69 42 182
70 85 154
71 49 111
72 71 126
73 82 185
74 61 134
75 1 119
76 34 156
77 67 106
78 29 108
79 88 186
80 40 150
81 58 176
82 2 159
83 72 161
84 68 142
85 76 135
86 79 137
87 64 123
88 22 117
89 69 178
90 75 152
91 90 187
92 93 115
93 94 121
94 20 193
95 95 169
96 86 165
97 51 164
98 10 103
99 83 125
100 47 198
