kroA200 heuristic results iteration 61:
1 32 112
2 99 132
3 73 175
4 56 194
5 35 181
6 13 149
7 98 143
8 18 172
9 91 167
10 9 184
11 44 138
12 80 129
13 96 195
14 95 177
15 86 151
16 51 104
17 10 136
18 83 147
19 47 199
20 65 170
21 43 140
22 62 113
23 15 102
24 50 145
25 36 128
26 28 133
27 17 182
28 48 154
29 92 111
30 3 126
31 59 185
32 68 134
33 2 119
34 72 156
35 58 106
36 40 108
37 88 186
38 20 150
39 22 160
40 34 124
41 1 180
42 67 168
43 29 163
44 76 139
45 79 153
46 64 101
47 30 166
48 46 127
49 66 192
50 54 157
51 41 176
52 63 159
53 19 161
54 78 122
55 12 197
56 14 190
57 26 144
58 84 131
59 0 110
60 52 114
61 39 116
62 11 173
63 45 120
64 23 158
65 31 171
66 60 109
67 25 183
68 77 135
69 8 137
70 81 123
71 6 117
72 5 178
73 53 152
74 74 187
75 21 115
76 7 121
77 16 193
78 24 169
79 89 165
80 33 164
81 57 103
82 97 196
83 87 155
84 27 179
85 38 130
86 37 188
87 70 141
88 55 107
89 4 191
90 42 100
91 85 162
92 49 105
93 71 148
94 82 189
95 61 118
96 94 174
97 93 125
98 90 198
99 69 146
100 75 142
