kroA200 heuristic results iteration 31:
1 83 117
2 10 123
3 51 137
4 47 135
5 65 198
6 43 183
7 62 109
8 15 171
9 50 120
10 36 173
11 28 158
12 17 116
13 48 114
14 92 110
15 3 131
16 59 190
17 13 197
18 35 122
19 56 144
20 73 146
21 99 162
22 32 105
23 44 148
24 80 189
25 96 178
26 9 152
27 91 187
28 98 115
29 18 121
30 11 193
31 39 169
32 26 165
33 14 164
34 12 103
35 78 196
36 63 155
37 19 179
38 54 130
39 41 188
40 66 141
41 30 107
42 46 191
43 5 100
44 53 192
45 74 127
46 21 166
47 7 157
48 16 160
49 24 124
50 89 180
51 33 168
52 57 172
53 97 149
54 87 143
55 27 101
56 38 153
57 37 139
58 70 163
59 55 167
60 4 184
61 42 138
62 85 129
63 49 195
64 71 177
65 82 151
66 61 104
67 1 136
68 34 132
69 67 175
70 29 112
71 88 194
72 40 181
73 58 147
74 2 199
75 72 170
76 68 140
77 76 113
78 79 102
79 64 145
80 84 128
81 0 133
82 52 182
83 45 154
84 23 111
85 31 126
86 60 185
87 25 134
88 77 119
89 8 156
90 81 106
91 6 108
92 95 186
93 86 150
94 20 176
95 22 159
96 69 161
97 75 142
98 90 174
99 93 118
100 94 125
