kroA200 heuristic results iteration 79:
1 26 184
2 14 167
3 12 172
4 78 149
5 63 143
6 19 101
7 54 153
8 41 139
9 66 163
10 30 168
11 46 180
12 5 124
13 53 160
14 74 150
15 21 186
16 7 108
17 16 106
18 24 156
19 89 119
20 33 111
21 57 126
22 97 185
23 87 134
24 27 161
25 38 159
26 37 176
27 70 122
28 55 197
29 4 190
30 42 144
31 85 131
32 49 110
33 71 114
34 82 116
35 61 173
36 1 120
37 34 158
38 67 171
39 29 109
40 88 183
41 40 135
42 58 137
43 2 123
44 72 117
45 68 178
46 73 152
47 56 187
48 35 115
49 99 121
50 32 193
51 44 169
52 80 165
53 96 164
54 9 103
55 91 196
56 98 155
57 18 179
58 13 130
59 3 188
60 59 141
61 92 107
62 48 191
63 17 100
64 28 162
65 36 105
66 60 148
67 25 189
68 77 118
69 8 174
70 81 125
71 6 198
72 31 146
73 23 192
74 45 127
75 11 166
76 39 157
77 84 154
78 0 182
79 52 133
80 64 128
81 79 145
82 76 102
83 22 142
84 69 113
85 75 170
86 90 140
87 93 199
88 94 147
89 20 151
90 65 177
91 43 195
92 62 104
93 15 136
94 50 132
95 47 175
96 83 112
97 10 194
98 51 181
99 95 138
100 86 129
