kroA200 heuristic results iteration 74:
1 56 188
2 35 141
3 73 130
4 99 179
5 32 155
6 44 196
7 80 174
8 96 118
9 9 152
10 91 178
11 98 117
12 18 123
13 13 137
14 3 135
15 59 198
16 92 183
17 48 109
18 17 171
19 28 120
20 36 173
21 60 158
22 25 116
23 77 114
24 8 110
25 81 131
26 6 190
27 31 197
28 23 122
29 45 144
30 11 146
31 39 162
32 26 105
33 14 148
34 12 189
35 78 191
36 63 107
37 19 100
38 54 192
39 41 127
40 66 166
41 30 157
42 46 160
43 5 124
44 53 180
45 74 168
46 21 172
47 7 149
48 16 143
49 24 101
50 89 153
51 33 139
52 57 163
53 97 167
54 87 184
55 27 138
56 38 129
57 37 195
58 70 177
59 55 151
60 4 104
61 42 136
62 85 132
63 49 175
64 71 112
65 82 194
66 61 181
67 1 147
68 34 199
69 67 170
70 29 140
71 88 113
72 40 102
73 58 145
74 2 128
75 72 133
76 68 182
77 76 154
78 79 111
79 64 126
80 84 185
81 0 134
82 52 119
83 15 156
84 62 106
85 43 108
86 65 186
87 47 150
88 83 176
89 10 159
90 51 161
91 95 142
92 86 103
93 50 164
94 20 165
95 22 125
96 69 169
97 75 121
98 90 115
99 93 187
100 94 193
