kroA200 heuristic results iteration 45:
1 35 117
2 56 123
3 73 137
4 99 135
5 32 198
6 44 183
7 80 109
8 96 171
9 9 120
10 91 173
11 98 158
12 18 116
13 13 114
14 3 110
15 59 131
16 92 190
17 48 197
18 17 122
19 28 144
20 36 146
21 60 162
22 25 105
23 77 148
24 8 189
25 81 178
26 6 152
27 31 187
28 23 115
29 45 121
30 11 193
31 39 169
32 26 165
33 14 164
34 12 103
35 78 196
36 63 155
37 19 179
38 54 130
39 41 188
40 66 141
41 30 107
42 46 191
43 5 100
44 53 192
45 74 127
46 21 166
47 7 157
48 16 160
49 24 124
50 89 180
51 33 168
52 57 172
53 97 149
54 87 143
55 27 101
56 38 153
57 37 139
58 70 163
59 55 167
60 4 184
61 42 138
62 85 129
63 49 195
64 71 177
65 82 151
66 61 104
67 1 136
68 34 132
69 67 175
70 29 112
71 88 194
72 40 181
73 58 147
74 2 199
75 72 170
76 68 140
77 76 113
78 79 102
79 64 145
80 84 128
81 0 133
82 52 182
83 15 154
84 62 111
85 43 126
86 65 185
87 47 134
88 83 119
89 10 156
90 51 106
91 95 108
92 86 186
93 50 150
94 20 176
95 22 159
96 69 161
97 75 142
98 90 174
99 93 118
100 94 125
