kroA200 heuristic results iteration 24:
1 44 138
2 80 129
3 32 195
4 99 177
5 73 151
6 56 104
7 35 136
8 13 132
9 98 175
10 18 112
11 91 194
12 9 181
13 92 149
14 48 143
15 17 172
16 28 167
17 36 184
18 60 180
19 25 124
20 77 160
21 8 150
22 81 186
23 6 108
24 31 106
25 23 156
26 45 119
27 11 111
28 39 126
29 26 185
30 14 134
31 12 161
32 78 159
33 63 176
34 19 122
35 54 197
36 41 190
37 66 144
38 30 131
39 46 110
40 5 114
41 53 116
42 74 173
43 21 120
44 7 158
45 16 171
46 24 109
47 89 183
48 33 135
49 57 137
50 97 123
51 87 117
52 27 178
53 38 152
54 37 187
55 70 115
56 55 121
57 4 193
58 42 169
59 85 165
60 49 164
61 71 103
62 82 196
63 61 155
64 1 179
65 34 130
66 67 188
67 29 141
68 88 107
69 40 191
70 58 100
71 2 162
72 72 105
73 68 148
74 59 189
75 3 118
76 84 174
77 0 125
78 52 198
79 64 146
80 79 192
81 76 127
82 22 166
83 69 157
84 75 168
85 90 163
86 93 139
87 94 153
88 20 101
89 96 133
90 95 182
91 86 154
92 51 145
93 10 102
94 83 142
95 47 128
96 65 113
97 43 170
98 62 140
99 15 199
100 50 147
