kroA200 heuristic results iteration 33:
1 15 123
2 62 137
3 43 135
4 65 198
5 47 117
6 83 178
7 10 152
8 51 187
9 95 115
10 86 121
11 96 193
12 80 169
13 44 165
14 32 164
15 99 103
16 73 196
17 56 155
18 35 179
19 13 130
20 98 188
21 18 141
22 91 107
23 9 191
24 92 100
25 48 162
26 17 105
27 28 148
28 36 189
29 60 109
30 25 183
31 77 171
32 8 120
33 81 173
34 6 158
35 31 116
36 23 114
37 45 110
38 11 131
39 39 190
40 26 197
41 14 122
42 12 144
43 78 146
44 63 192
45 19 127
46 54 166
47 41 157
48 66 160
49 30 124
50 46 180
51 5 168
52 53 172
53 74 149
54 21 143
55 7 101
56 16 153
57 24 139
58 89 163
59 33 167
60 57 184
61 97 138
62 87 129
63 27 195
64 38 177
65 37 151
66 70 104
67 55 136
68 4 132
69 42 175
70 85 112
71 49 194
72 71 181
73 82 147
74 61 199
75 1 170
76 34 140
77 67 113
78 29 102
79 88 145
80 40 128
81 58 133
82 2 182
83 72 154
84 68 111
85 59 126
86 3 185
87 84 134
88 0 119
89 52 156
90 64 106
91 79 108
92 76 186
93 22 150
94 69 176
95 75 159
96 90 161
97 93 142
98 94 174
99 20 118
100 50 125
