kroA200 heuristic results iteration 88:
1 86 170
2 95 140
3 10 199
4 51 147
5 83 113
6 47 102
7 65 145
8 43 128
9 62 133
10 15 182
11 50 154
12 36 111
13 28 126
14 17 185
15 48 134
16 92 119
17 3 156
18 59 106
19 13 108
20 35 186
21 56 150
22 73 160
23 99 124
24 32 180
25 44 168
26 80 172
27 96 149
28 9 143
29 91 101
30 98 153
31 18 139
32 11 163
33 39 167
34 26 184
35 14 138
36 12 129
37 78 195
38 63 177
39 19 151
40 54 104
41 41 136
42 66 132
43 30 175
44 46 112
45 5 194
46 53 181
47 74 157
48 21 127
49 7 192
50 16 166
51 24 100
52 89 162
53 33 105
54 57 148
55 97 189
56 87 109
57 27 183
58 38 171
59 37 120
60 70 173
61 55 158
62 4 116
63 42 114
64 85 110
65 49 131
66 71 190
67 82 197
68 61 122
69 1 144
70 34 146
71 67 191
72 29 107
73 88 141
74 40 188
75 58 130
76 2 179
77 72 155
78 68 196
79 76 174
80 79 118
81 64 152
82 84 178
83 0 117
84 52 123
85 45 137
86 23 135
87 31 198
88 60 193
89 25 121
90 77 115
91 8 187
92 81 169
93 6 165
94 20 164
95 22 103
96 69 125
97 75 176
98 90 159
99 93 161
100 94 142
