kroA200 heuristic results iteration 11:
1 45 175
2 28 132
3 17 112
4 48 194
5 92 181
6 3 149
7 59 143
8 13 172
9 35 167
10 56 184
11 73 138
12 99 129
13 32 195
14 44 177
15 80 151
16 96 104
17 9 136
18 91 147
19 98 199
20 18 170
21 65 140
22 43 113
23 62 102
24 15 145
25 50 128
26 36 133
27 60 182
28 25 154
29 77 111
30 8 126
31 81 185
32 6 134
33 31 119
34 23 156
35 52 106
36 0 108
37 84 186
38 26 150
39 14 160
40 12 124
41 78 180
42 63 168
43 19 163
44 54 139
45 41 153
46 66 101
47 30 166
48 46 127
49 5 192
50 53 157
51 74 176
52 21 159
53 7 161
54 16 122
55 24 197
56 89 190
57 33 144
58 57 131
59 97 110
60 87 114
61 27 116
62 38 173
63 37 120
64 70 158
65 55 171
66 4 109
67 42 183
68 85 135
69 49 137
70 71 123
71 82 117
72 61 178
73 1 152
74 34 187
75 67 115
76 29 121
77 88 193
78 40 169
79 58 165
80 2 164
81 72 103
82 68 196
83 76 155
84 79 179
85 64 130
86 39 188
87 11 141
88 47 107
89 83 191
90 10 100
91 51 162
92 95 105
93 86 148
94 20 189
95 22 118
96 69 174
97 75 125
98 90 198
99 93 146
100 94 142
