kroA200 heuristic results iteration 42:
1 31 125
2 23 164
3 60 165
4 25 103
5 77 196
6 8 155
7 81 179
8 6 130
9 36 188
10 28 141
11 17 107
12 48 191
13 92 100
14 3 162
15 59 105
16 13 148
17 35 189
18 56 109
19 73 183
20 99 171
21 32 120
22 44 173
23 80 158
24 96 116
25 9 114
26 91 110
27 98 131
28 18 190
29 65 197
30 43 122
31 62 144
32 15 146
33 50 192
34 47 127
35 83 166
36 10 157
37 51 160
38 95 124
39 86 180
40 68 168
41 2 172
42 72 149
43 58 143
44 40 101
45 88 153
46 20 139
47 22 163
48 34 167
49 1 184
50 67 138
51 29 129
52 76 195
53 79 177
54 64 151
55 30 104
56 46 136
57 66 132
58 54 175
59 41 112
60 63 194
61 19 181
62 78 147
63 12 199
64 14 170
65 26 140
66 84 113
67 0 102
68 52 145
69 39 128
70 11 133
71 45 182
72 5 154
73 53 111
74 74 126
75 21 185
76 7 134
77 16 119
78 24 156
79 89 106
80 33 108
81 57 186
82 97 150
83 87 176
84 27 159
85 38 161
86 37 142
87 70 174
88 55 118
89 4 152
90 42 178
91 85 117
92 49 123
93 71 137
94 82 135
95 61 198
96 94 193
97 93 121
98 90 115
99 69 187
100 75 169
