kroA200 heuristic results iteration 41:
1 5 199
2 53 170
3 74 140
4 21 113
5 7 102
6 16 145
7 24 128
8 89 133
9 33 182
10 57 154
11 97 111
12 87 126
13 27 185
14 38 134
15 37 119
16 70 156
17 55 106
18 4 108
19 42 186
20 85 150
21 49 160
22 71 124
23 82 180
24 61 168
25 1 172
26 34 149
27 67 143
28 29 101
29 88 153
30 40 139
31 58 163
32 2 167
33 72 184
34 68 138
35 73 129
36 56 195
37 35 177
38 99 151
39 32 104
40 44 136
41 80 132
42 96 175
43 9 112
44 91 194
45 98 181
46 18 147
47 13 142
48 3 161
49 59 159
50 92 176
51 48 122
52 17 197
53 28 190
54 36 144
55 60 131
56 25 110
57 77 114
58 8 116
59 81 173
60 6 120
61 31 158
62 23 171
63 45 109
64 11 183
65 39 135
66 26 137
67 14 123
68 12 117
69 78 178
70 63 152
71 19 187
72 54 115
73 41 121
74 66 193
75 30 169
76 46 165
77 64 164
78 79 103
79 76 196
80 22 155
81 69 179
82 75 130
83 90 188
84 93 141
85 94 107
86 20 191
87 84 100
88 0 162
89 52 105
90 15 148
91 62 189
92 43 118
93 65 174
94 47 125
95 83 198
96 10 146
97 51 192
98 95 127
99 86 166
100 50 157
