kroA200 heuristic results iteration 98:
1 21 159
2 7 161
3 74 176
4 53 122
5 5 197
6 46 190
7 30 144
8 66 131
9 54 110
10 41 114
11 63 116
12 19 173
13 78 120
14 12 158
15 14 171
16 26 109
17 84 183
18 0 135
19 52 137
20 39 123
21 11 117
22 45 178
23 28 152
24 17 187
25 48 115
26 92 121
27 3 193
28 59 169
29 13 165
30 35 164
31 56 103
32 73 196
33 99 155
34 32 179
35 44 130
36 80 188
37 96 141
38 9 107
39 91 191
40 98 100
41 18 162
42 65 105
43 43 148
44 62 189
45 15 118
46 50 174
47 36 125
48 60 198
49 25 146
50 77 192
51 8 127
52 81 166
53 6 157
54 31 160
55 23 124
56 47 180
57 83 168
58 10 172
59 51 149
60 95 143
61 86 101
62 68 153
63 2 139
64 72 163
65 58 167
66 40 184
67 88 138
68 20 129
69 22 195
70 34 177
71 1 151
72 67 104
73 29 136
74 76 132
75 79 175
76 64 112
77 61 194
78 82 181
79 71 147
80 70 199
81 37 170
82 27 140
83 38 113
84 87 102
85 97 145
86 57 128
87 33 133
88 89 182
89 24 154
90 16 111
91 55 126
92 4 185
93 42 134
94 85 119
95 49 156
96 94 106
97 93 108
98 90 186
99 69 150
100 75 142
