kroA200 heuristic results iteration 95:
1 64 150
2 79 186
3 76 108
4 29 106
5 67 156
6 34 119
7 1 111
8 22 126
9 69 185
10 75 134
11 90 161
12 93 159
13 94 176
14 49 122
15 71 197
16 82 190
17 61 144
18 53 131
19 5 110
20 74 114
21 21 116
22 7 173
23 16 120
24 24 158
25 89 171
26 33 109
27 57 183
28 97 135
29 87 137
30 27 123
31 38 117
32 37 178
33 70 152
34 55 187
35 4 115
36 42 121
37 85 193
38 20 169
39 88 165
40 40 164
41 58 103
42 2 196
43 72 155
44 68 179
45 73 130
46 56 188
47 35 141
48 99 107
49 32 191
50 44 100
51 80 162
52 96 105
53 9 148
54 91 189
55 98 118
56 18 174
57 13 125
58 3 198
59 59 146
60 92 192
61 48 127
62 17 166
63 28 157
64 36 160
65 60 124
66 25 180
67 77 168
68 8 172
69 81 149
70 6 143
71 31 101
72 23 153
73 45 139
74 11 163
75 39 167
76 26 184
77 14 138
78 12 129
79 78 195
80 63 177
81 19 151
82 54 104
83 41 136
84 66 132
85 30 175
86 46 112
87 84 194
88 0 181
89 52 147
90 15 199
91 62 170
92 43 140
93 65 113
94 47 102
95 83 145
96 10 128
97 51 133
98 95 182
99 86 154
100 50 142
