kroA200 heuristic results iteration 46:
1 39 177
2 11 151
3 45 195
4 28 104
5 17 136
6 48 132
7 92 175
8 3 112
9 59 194
10 13 181
11 35 149
12 56 143
13 73 172
14 99 167
15 32 184
16 44 138
17 80 129
18 96 147
19 9 199
20 91 170
21 98 140
22 18 113
23 65 102
24 43 145
25 62 128
26 15 133
27 50 182
28 36 154
29 60 111
30 25 126
31 77 185
32 8 134
33 81 119
34 6 156
35 31 106
36 23 108
37 52 186
38 0 150
39 84 160
40 26 124
41 14 180
42 12 168
43 78 163
44 63 139
45 19 153
46 54 101
47 41 166
48 66 127
49 30 192
50 46 157
51 5 176
52 53 159
53 74 161
54 21 122
55 7 197
56 16 190
57 24 144
58 89 131
59 33 110
60 57 114
61 97 116
62 87 173
63 27 120
64 38 158
65 37 171
66 70 109
67 55 183
68 4 135
69 42 137
70 85 123
71 49 117
72 71 178
73 82 152
74 61 187
75 1 115
76 34 121
77 67 193
78 29 169
79 88 165
80 40 164
81 58 103
82 2 196
83 72 155
84 68 179
85 76 130
86 79 188
87 64 141
88 22 107
89 69 191
90 75 100
91 90 162
92 93 105
93 94 148
94 20 189
95 95 118
96 86 174
97 51 125
98 10 198
99 83 146
100 47 142
