kroA200 heuristic results iteration 63:
1 15 185
2 62 126
3 43 111
4 65 119
5 47 156
6 83 106
7 10 108
8 51 186
9 95 150
10 86 160
11 96 124
12 80 180
13 44 168
14 32 172
15 99 149
16 73 143
17 56 101
18 35 153
19 13 139
20 98 163
21 18 167
22 91 184
23 9 138
24 92 129
25 48 195
26 17 177
27 28 151
28 36 104
29 60 136
30 25 132
31 77 175
32 8 112
33 81 194
34 6 181
35 31 147
36 23 199
37 45 170
38 11 140
39 39 113
40 26 102
41 14 145
42 12 128
43 78 133
44 63 182
45 19 154
46 54 134
47 41 161
48 66 159
49 30 176
50 46 122
51 5 197
52 53 190
53 74 144
54 21 131
55 7 110
56 16 114
57 24 116
58 89 173
59 33 120
60 57 158
61 97 171
62 87 109
63 27 183
64 38 135
65 37 137
66 70 123
67 55 117
68 4 178
69 42 152
70 85 187
71 49 115
72 71 121
73 82 193
74 61 169
75 1 165
76 34 164
77 67 103
78 29 196
79 88 155
80 40 179
81 58 130
82 2 188
83 72 141
84 68 107
85 59 191
86 3 100
87 84 162
88 0 105
89 52 148
90 64 189
91 79 118
92 76 174
93 22 125
94 69 198
95 75 146
96 90 192
97 93 127
98 94 166
99 20 157
100 50 142
