kroA200 heuristic results iteration 16:
1 98 181
2 18 194
3 91 112
4 9 132
5 35 175
6 56 136
7 73 104
8 99 177
9 32 151
10 44 195
11 80 138
12 96 129
13 95 147
14 86 199
15 51 170
16 10 140
17 83 113
18 47 102
19 65 145
20 43 128
21 62 133
22 15 182
23 50 154
24 36 111
25 28 126
26 17 185
27 48 134
28 92 119
29 3 156
30 59 106
31 13 108
32 68 186
33 2 150
34 72 160
35 58 124
36 40 180
37 88 168
38 20 172
39 22 149
40 34 143
41 1 101
42 67 153
43 29 139
44 76 163
45 79 167
46 64 184
47 30 142
48 46 161
49 66 159
50 54 176
51 41 122
52 63 197
53 19 190
54 78 144
55 12 131
56 14 110
57 26 114
58 84 116
59 0 173
60 52 120
61 39 158
62 11 171
63 45 109
64 23 183
65 31 135
66 60 137
67 25 123
68 77 117
69 8 178
70 81 152
71 6 187
72 5 115
73 53 121
74 74 193
75 21 169
76 7 165
77 16 164
78 24 103
79 89 196
80 33 155
81 57 179
82 97 130
83 87 188
84 27 141
85 38 107
86 37 191
87 70 100
88 55 162
89 4 105
90 42 148
91 85 189
92 49 118
93 71 174
94 82 125
95 61 198
96 94 146
97 93 192
98 90 127
99 69 166
100 75 157
