kroA200 heuristic results iteration 20:
1 9 160
2 91 124
3 98 180
4 18 168
5 13 172
6 35 149
7 56 143
8 73 101
9 99 153
10 32 139
11 44 163
12 80 167
13 96 184
14 95 138
15 86 129
16 51 195
17 10 177
18 83 151
19 47 104
20 65 136
21 43 132
22 62 175
23 15 112
24 50 194
25 36 181
26 28 147
27 17 199
28 48 170
29 92 140
30 3 113
31 59 102
32 68 145
33 2 128
34 72 133
35 58 182
36 40 154
37 88 111
38 20 126
39 22 185
40 34 134
41 1 119
42 67 156
43 29 106
44 76 108
45 79 186
46 64 150
47 30 157
48 46 127
49 66 192
50 54 166
51 41 100
52 63 162
53 19 105
54 78 148
55 12 189
56 14 109
57 26 183
58 84 171
59 0 120
60 52 173
61 39 158
62 11 116
63 45 114
64 23 110
65 31 131
66 60 190
67 25 197
68 77 122
69 8 144
70 81 146
71 6 191
72 5 107
73 53 141
74 74 188
75 21 130
76 7 179
77 16 155
78 24 196
79 89 174
80 33 118
81 57 152
82 97 178
83 87 117
84 27 123
85 38 137
86 37 135
87 70 198
88 55 193
89 4 121
90 42 115
91 85 187
92 49 169
93 71 165
94 82 164
95 61 103
96 94 125
97 93 176
98 90 159
99 69 161
100 75 142
