kroA200 heuristic results iteration 86:
1 55 109
2 37 183
3 70 171
4 38 120
5 27 173
6 87 158
7 97 116
8 57 114
9 33 110
10 89 131
11 24 190
12 16 197
13 7 122
14 21 144
15 74 146
16 53 162
17 5 105
18 46 148
19 30 189
20 66 178
21 54 152
22 41 187
23 63 115
24 19 121
25 78 193
26 12 169
27 14 165
28 26 164
29 84 103
30 0 196
31 52 155
32 39 179
33 11 130
34 45 188
35 28 141
36 17 107
37 48 191
38 92 100
39 3 192
40 59 127
41 13 166
42 35 157
43 56 160
44 73 124
45 99 180
46 32 168
47 44 172
48 80 149
49 96 143
50 9 101
51 91 153
52 98 139
53 18 163
54 65 167
55 43 184
56 62 138
57 15 129
58 50 195
59 36 177
60 60 151
61 25 104
62 77 136
63 8 132
64 81 175
65 6 112
66 31 194
67 23 181
68 47 147
69 83 199
70 10 170
71 51 140
72 95 113
73 86 102
74 68 145
75 2 128
76 72 133
77 58 182
78 40 154
79 88 111
80 20 126
81 22 185
82 34 134
83 1 119
84 67 156
85 29 106
86 76 108
87 79 186
88 64 150
89 61 176
90 82 159
91 71 161
92 49 142
93 94 174
94 93 118
95 90 117
96 69 123
97 75 137
98 85 135
99 4 198
100 42 125
