kroA200 heuristic results iteration 13:
1 80 121
2 44 115
3 32 187
4 99 193
5 73 169
6 56 152
7 35 178
8 13 117
9 98 123
10 18 137
11 91 135
12 9 198
13 92 183
14 48 109
15 17 171
16 28 120
17 36 173
18 60 158
19 25 116
20 77 114
21 8 110
22 81 131
23 6 190
24 31 197
25 23 122
26 45 144
27 11 146
28 39 162
29 26 105
30 14 148
31 12 189
32 78 118
33 63 174
34 19 196
35 54 155
36 41 179
37 66 130
38 30 188
39 46 141
40 5 107
41 53 191
42 74 100
43 21 192
44 7 127
45 16 166
46 24 157
47 89 160
48 33 124
49 57 180
50 97 168
51 87 172
52 27 149
53 38 143
54 37 101
55 70 153
56 55 139
57 4 163
58 42 167
59 85 184
60 49 138
61 71 129
62 82 195
63 61 177
64 1 151
65 34 104
66 67 136
67 29 132
68 88 175
69 40 112
70 58 194
71 2 181
72 72 147
73 68 199
74 59 170
75 3 140
76 84 113
77 0 102
78 52 145
79 64 128
80 79 133
81 76 182
82 22 154
83 69 111
84 75 126
85 90 185
86 93 134
87 94 119
88 20 156
89 96 106
90 95 108
91 86 186
92 51 150
93 10 176
94 83 159
95 47 161
96 65 142
97 43 103
98 62 164
99 15 165
100 50 125
