kroA200 heuristic results iteration 36:
1 65 186
2 43 150
3 62 160
4 15 124
5 50 180
6 36 168
7 28 172
8 17 149
9 48 143
10 92 101
11 3 153
12 59 139
13 13 163
14 35 167
15 56 184
16 73 138
17 99 129
18 32 195
19 44 177
20 80 151
21 96 104
22 9 136
23 91 132
24 98 175
25 18 112
26 47 194
27 83 181
28 10 147
29 51 199
30 95 170
31 86 140
32 68 113
33 2 102
34 72 145
35 58 128
36 40 133
37 88 182
38 20 154
39 22 111
40 34 126
41 1 185
42 67 134
43 29 119
44 76 156
45 79 106
46 64 108
47 30 161
48 46 159
49 66 176
50 54 122
51 41 197
52 63 190
53 19 144
54 78 131
55 12 110
56 14 114
57 26 116
58 84 173
59 0 120
60 52 158
61 39 171
62 11 109
63 45 183
64 23 135
65 31 137
66 60 123
67 25 117
68 77 178
69 8 152
70 81 187
71 6 115
72 5 121
73 53 193
74 74 169
75 21 165
76 7 164
77 16 103
78 24 196
79 89 155
80 33 179
81 57 130
82 97 188
83 87 141
84 27 107
85 38 191
86 37 100
87 70 162
88 55 105
89 4 148
90 42 189
91 85 118
92 49 174
93 71 125
94 82 198
95 61 146
96 94 192
97 93 127
98 90 166
99 69 157
100 75 142
