kroA200 heuristic results iteration 72:
1 67 188
2 29 141
3 34 130
4 1 179
5 22 155
6 69 196
7 75 174
8 90 118
9 93 152
10 94 178
11 49 117
12 71 123
13 82 137
14 61 135
15 53 198
16 5 183
17 74 109
18 21 171
19 7 120
20 16 173
21 24 158
22 89 116
23 33 114
24 57 110
25 97 131
26 87 190
27 27 197
28 38 122
29 37 144
30 70 146
31 55 162
32 4 105
33 42 148
34 85 189
35 20 191
36 88 107
37 40 100
38 58 192
39 2 127
40 72 166
41 68 157
42 73 160
43 56 124
44 35 180
45 99 168
46 32 172
47 44 149
48 80 143
49 96 101
50 9 153
51 91 139
52 98 163
53 18 167
54 13 184
55 3 138
56 59 129
57 92 195
58 48 177
59 17 151
60 28 104
61 36 136
62 60 132
63 25 175
64 77 112
65 8 194
66 81 181
67 6 147
68 31 199
69 23 170
70 45 140
71 11 113
72 39 102
73 26 145
74 14 128
75 12 133
76 78 182
77 63 154
78 19 111
79 54 126
80 41 185
81 66 134
82 30 119
83 46 156
84 64 106
85 79 108
86 76 186
87 84 150
88 0 176
89 52 159
90 15 161
91 62 142
92 43 103
93 65 164
94 47 165
95 83 125
96 10 169
97 51 121
98 95 115
99 86 187
100 50 193
