kroA200 heuristic results iteration 2:
1 15 119
2 62 111
3 43 126
4 65 185
5 47 134
6 83 161
7 10 159
8 51 176
9 95 122
10 86 197
11 96 190
12 80 144
13 44 131
14 32 110
15 99 114
16 73 116
17 56 173
18 35 120
19 13 158
20 98 171
21 18 109
22 91 183
23 9 135
24 92 137
25 48 123
26 17 117
27 28 178
28 36 152
29 60 187
30 25 115
31 77 121
32 8 193
33 81 169
34 6 165
35 31 164
36 23 103
37 45 196
38 11 155
39 39 179
40 26 130
41 14 188
42 12 141
43 78 107
44 63 191
45 19 100
46 54 162
47 41 105
48 66 148
49 30 189
50 46 118
51 5 174
52 53 125
53 74 198
54 21 146
55 7 192
56 16 127
57 24 166
58 89 157
59 33 160
60 57 124
61 97 180
62 87 168
63 27 172
64 38 149
65 37 143
66 70 101
67 55 153
68 4 139
69 42 163
70 85 167
71 49 184
72 71 138
73 82 129
74 61 195
75 1 177
76 34 151
77 67 104
78 29 136
79 88 132
80 40 175
81 58 112
82 2 194
83 72 181
84 68 147
85 59 199
86 3 170
87 84 140
88 0 113
89 52 102
90 64 145
91 79 128
92 76 133
93 22 182
94 69 154
95 75 106
96 90 108
97 93 156
98 94 186
99 20 150
100 50 142
