kroA200 heuristic results iteration 94:
1 91 102
2 9 145
3 98 128
4 18 133
5 13 182
6 35 154
7 56 111
8 73 126
9 99 185
10 32 134
11 44 119
12 80 156
13 96 106
14 95 108
15 86 186
16 51 150
17 10 160
18 83 124
19 47 180
20 65 168
21 43 172
22 62 149
23 15 143
24 50 101
25 36 153
26 28 139
27 17 163
28 48 167
29 92 184
30 3 138
31 59 129
32 68 195
33 2 177
34 72 151
35 58 104
36 40 136
37 88 132
38 20 175
39 22 112
40 34 194
41 1 181
42 67 147
43 29 199
44 76 170
45 79 140
46 64 113
47 30 142
48 46 161
49 66 159
50 54 176
51 41 122
52 63 197
53 19 190
54 78 144
55 12 131
56 14 110
57 26 114
58 84 116
59 0 173
60 52 120
61 39 158
62 11 171
63 45 109
64 23 183
65 31 135
66 60 137
67 25 123
68 77 117
69 8 178
70 81 152
71 6 187
72 5 115
73 53 121
74 74 193
75 21 169
76 7 165
77 16 164
78 24 103
79 89 196
80 33 155
81 57 179
82 97 130
83 87 188
84 27 141
85 38 107
86 37 191
87 70 100
88 55 162
89 4 105
90 42 148
91 85 189
92 49 118
93 71 174
94 82 125
95 61 198
96 94 146
97 93 192
98 90 127
99 69 166
100 75 157
