kroA200 heuristic results iteration 64:
1 11 125
2 39 164
3 26 165
4 14 103
5 12 196
6 78 155
7 63 179
8 19 130
9 54 188
10 41 141
11 66 107
12 30 191
13 46 100
14 5 162
15 53 105
16 74 148
17 21 189
18 7 109
19 16 183
20 24 171
21 89 120
22 33 173
23 57 158
24 97 116
25 87 114
26 27 110
27 38 131
28 37 190
29 70 197
30 55 122
31 4 144
32 42 146
33 85 192
34 49 127
35 71 166
36 82 157
37 61 160
38 1 124
39 34 180
40 67 168
41 29 172
42 88 149
43 40 143
44 58 101
45 2 153
46 72 139
47 68 163
48 73 167
49 56 184
50 35 138
51 99 129
52 32 195
53 44 177
54 80 151
55 96 104
56 9 136
57 91 132
58 98 175
59 18 112
60 13 194
61 3 181
62 59 147
63 92 199
64 48 170
65 17 140
66 28 113
67 36 102
68 60 145
69 25 128
70 77 133
71 8 182
72 81 154
73 6 111
74 31 126
75 23 185
76 45 134
77 52 119
78 0 156
79 84 106
80 64 108
81 79 186
82 76 150
83 22 176
84 69 159
85 75 161
86 90 142
87 93 174
88 94 118
89 20 152
90 65 178
91 43 117
92 62 123
93 15 137
94 50 135
95 47 198
96 83 193
97 10 121
98 51 115
99 95 187
100 86 169
