kroA200 heuristic results iteration 25:
1 97 164
2 87 165
3 27 103
4 38 196
5 37 155
6 70 179
7 55 130
8 4 188
9 42 141
10 85 107
11 49 191
12 71 100
13 82 162
14 61 105
15 53 148
16 5 189
17 74 109
18 21 183
19 7 171
20 16 120
21 24 173
22 89 158
23 33 116
24 57 114
25 41 110
26 54 131
27 63 190
28 19 197
29 78 122
30 12 144
31 14 146
32 26 192
33 84 127
34 0 166
35 52 157
36 39 160
37 11 124
38 45 180
39 28 168
40 17 172
41 48 149
42 92 143
43 3 101
44 59 153
45 13 139
46 35 163
47 56 167
48 73 184
49 99 138
50 32 129
51 44 195
52 80 177
53 96 151
54 9 104
55 91 136
56 98 132
57 18 175
58 65 112
59 43 194
60 62 181
61 15 147
62 50 199
63 36 170
64 60 140
65 25 113
66 77 102
67 8 145
68 81 128
69 6 133
70 31 182
71 23 154
72 47 111
73 83 126
74 10 185
75 51 134
76 95 119
77 86 156
78 68 106
79 2 108
80 72 186
81 58 150
82 40 176
83 88 159
84 20 161
85 22 142
86 34 174
87 1 118
88 67 152
89 29 178
90 76 117
91 79 123
92 64 137
93 30 135
94 46 198
95 66 193
96 90 121
97 93 115
98 94 187
99 75 169
100 69 125
