kroA200 heuristic results iteration 83:
1 44 173
2 80 120
3 32 158
4 99 171
5 73 109
6 56 183
7 35 135
8 13 137
9 98 123
10 18 117
11 91 178
12 9 152
13 92 187
14 48 115
15 17 121
16 28 193
17 36 169
18 60 165
19 25 164
20 77 103
21 8 196
22 81 155
23 6 179
24 31 130
25 23 188
26 45 141
27 11 107
28 39 191
29 26 100
30 14 162
31 12 105
32 78 148
33 63 189
34 19 118
35 54 174
36 41 125
37 66 198
38 30 116
39 46 114
40 5 110
41 53 131
42 74 190
43 21 197
44 7 122
45 16 144
46 24 146
47 89 192
48 33 127
49 57 166
50 97 157
51 87 160
52 27 124
53 38 180
54 37 168
55 70 172
56 55 149
57 4 143
58 42 101
59 85 153
60 49 139
61 71 163
62 82 167
63 61 184
64 1 138
65 34 129
66 67 195
67 29 177
68 88 151
69 40 104
70 58 136
71 2 132
72 72 175
73 68 112
74 59 194
75 3 181
76 84 147
77 0 199
78 52 170
79 64 140
80 79 113
81 76 102
82 22 145
83 69 128
84 75 133
85 90 182
86 93 154
87 94 111
88 20 126
89 96 185
90 95 134
91 86 119
92 51 156
93 10 106
94 83 108
95 47 186
96 65 150
97 43 176
98 62 159
99 15 161
100 50 142
