kroA200 heuristic results iteration 66:
1 79 190
2 76 197
3 29 122
4 67 144
5 34 131
6 1 110
7 22 114
8 69 116
9 75 173
10 90 120
11 93 158
12 94 171
13 49 109
14 71 183
15 82 135
16 61 137
17 53 123
18 5 117
19 74 178
20 21 152
21 7 187
22 16 115
23 24 121
24 89 193
25 33 169
26 57 165
27 97 164
28 87 103
29 27 196
30 38 155
31 37 179
32 70 130
33 55 188
34 4 141
35 42 107
36 85 191
37 20 100
38 88 162
39 40 105
40 58 148
41 2 189
42 72 118
43 68 174
44 73 125
45 56 198
46 35 146
47 99 192
48 32 127
49 44 166
50 80 157
51 96 160
52 9 124
53 91 180
54 98 168
55 18 172
56 13 149
57 3 143
58 59 101
59 92 153
60 48 139
61 17 163
62 28 167
63 36 184
64 60 138
65 25 129
66 77 195
67 8 177
68 81 151
69 6 104
70 31 136
71 23 132
72 45 175
73 11 112
74 39 194
75 26 181
76 14 147
77 12 199
78 78 170
79 63 140
80 19 113
81 54 102
82 41 145
83 66 128
84 30 133
85 46 182
86 64 154
87 84 111
88 0 126
89 52 185
90 15 134
91 62 119
92 43 156
93 65 106
94 47 108
95 83 186
96 10 150
97 51 176
98 95 159
99 86 161
100 50 142
