kroA200 heuristic results iteration 28:
1 74 162
2 21 105
3 7 148
4 16 189
5 24 109
6 89 183
7 33 171
8 57 120
9 97 173
10 87 158
11 27 116
12 38 114
13 37 110
14 70 131
15 55 190
16 4 197
17 42 122
18 85 144
19 49 146
20 71 100
21 82 191
22 61 107
23 53 141
24 5 188
25 46 130
26 30 179
27 66 155
28 54 196
29 41 174
30 63 118
31 19 152
32 78 178
33 12 117
34 14 123
35 26 137
36 84 135
37 0 198
38 52 193
39 39 121
40 11 115
41 45 187
42 28 169
43 17 165
44 48 164
45 92 103
46 3 125
47 59 166
48 13 127
49 35 192
50 56 157
51 73 160
52 99 124
53 32 180
54 44 168
55 80 172
56 96 149
57 9 143
58 91 101
59 98 153
60 18 139
61 65 163
62 43 167
63 62 184
64 15 138
65 50 129
66 36 195
67 60 177
68 25 151
69 77 104
70 8 136
71 81 132
72 6 175
73 31 112
74 23 194
75 47 181
76 83 147
77 10 199
78 51 170
79 95 140
80 86 113
81 68 102
82 2 145
83 72 128
84 58 133
85 40 182
86 88 154
87 20 111
88 22 126
89 34 185
90 1 134
91 67 119
92 29 156
93 76 106
94 79 108
95 64 186
96 90 150
97 93 176
98 94 159
99 75 161
100 69 142
