kroA200 heuristic results iteration 3:
1 94 184
2 93 167
3 90 172
4 69 149
5 75 143
6 22 101
7 34 153
8 1 139
9 67 163
10 29 168
11 88 180
12 40 124
13 58 160
14 2 150
15 72 186
16 68 108
17 73 106
18 56 156
19 35 119
20 99 111
21 32 126
22 44 185
23 80 134
24 96 161
25 9 159
26 91 176
27 98 122
28 18 197
29 13 190
30 3 144
31 59 131
32 92 110
33 48 114
34 17 116
35 28 173
36 36 120
37 60 158
38 25 171
39 77 109
40 8 183
41 81 135
42 6 137
43 31 123
44 23 117
45 45 178
46 11 152
47 39 187
48 26 115
49 14 121
50 12 193
51 78 169
52 63 165
53 19 164
54 54 103
55 41 196
56 66 155
57 30 179
58 46 130
59 5 188
60 53 141
61 74 107
62 21 191
63 7 100
64 16 162
65 24 105
66 89 148
67 33 189
68 57 118
69 97 174
70 87 125
71 27 198
72 38 146
73 37 192
74 70 127
75 55 166
76 4 157
77 42 154
78 85 182
79 49 133
80 71 128
81 82 145
82 61 102
83 79 142
84 76 113
85 64 170
86 84 140
87 0 199
88 52 147
89 15 151
90 62 177
91 43 195
92 65 104
93 47 136
94 83 132
95 10 175
96 51 112
97 95 194
98 86 181
99 50 138
100 20 129
