kroA200 heuristic results iteration 10:
1 27 165
2 38 164
3 37 103
4 70 196
5 55 155
6 4 179
7 42 130
8 85 188
9 49 141
10 71 107
11 82 191
12 61 100
13 53 162
14 5 105
15 74 148
16 21 189
17 7 109
18 16 183
19 24 171
20 89 120
21 33 173
22 57 158
23 97 116
24 87 114
25 94 110
26 93 131
27 90 190
28 69 197
29 75 122
30 22 144
31 34 146
32 1 192
33 67 127
34 29 166
35 88 157
36 40 160
37 58 124
38 2 180
39 72 168
40 68 172
41 73 149
42 56 143
43 35 101
44 99 153
45 32 139
46 44 163
47 80 167
48 96 184
49 9 138
50 91 129
51 98 195
52 18 177
53 13 151
54 3 104
55 59 136
56 92 132
57 48 175
58 17 112
59 28 194
60 36 181
61 60 147
62 25 199
63 77 170
64 8 140
65 81 113
66 6 102
67 31 145
68 23 128
69 45 133
70 11 182
71 39 154
72 26 111
73 14 126
74 12 185
75 78 134
76 63 119
77 19 156
78 54 106
79 41 108
80 66 186
81 30 150
82 46 176
83 64 159
84 79 161
85 76 142
86 20 174
87 84 118
88 0 152
89 52 178
90 15 117
91 62 123
92 43 137
93 65 135
94 47 198
95 83 193
96 10 121
97 51 115
98 95 187
99 86 169
100 50 125
