kroA200 heuristic results iteration 18:
1 54 114
2 41 116
3 63 110
4 19 131
5 78 190
6 12 197
7 14 122
8 26 144
9 84 146
10 0 162
11 52 105
12 39 148
13 11 189
14 45 109
15 28 183
16 17 171
17 48 120
18 92 173
19 3 158
20 59 135
21 13 137
22 35 123
23 56 117
24 73 178
25 99 152
26 32 187
27 44 115
28 80 121
29 96 193
30 9 169
31 91 165
32 98 164
33 18 103
34 65 196
35 43 155
36 62 179
37 15 130
38 50 188
39 36 141
40 60 107
41 25 191
42 77 100
43 8 192
44 81 127
45 6 166
46 31 157
47 23 160
48 47 124
49 83 180
50 10 168
51 51 172
52 95 149
53 86 143
54 68 101
55 2 153
56 72 139
57 58 163
58 40 167
59 88 184
60 20 138
61 22 129
62 34 195
63 1 177
64 67 151
65 29 104
66 76 136
67 79 132
68 64 175
69 30 112
70 46 194
71 66 181
72 5 147
73 53 199
74 74 170
75 21 140
76 7 113
77 16 102
78 24 145
79 89 128
80 33 133
81 57 182
82 97 154
83 87 111
84 27 126
85 38 185
86 37 134
87 70 119
88 55 156
89 4 106
90 42 108
91 85 186
92 49 150
93 71 176
94 82 159
95 61 161
96 94 142
97 93 174
98 90 118
99 69 125
100 75 198
