kroA200 heuristic results iteration 69:
1 33 111
2 89 126
3 24 185
4 16 134
5 7 119
6 21 156
7 74 106
8 53 108
9 5 186
10 46 150
11 30 160
12 66 124
13 54 180
14 41 168
15 63 172
16 19 149
17 78 143
18 12 101
19 14 153
20 26 139
21 84 163
22 0 167
23 52 184
24 39 138
25 11 129
26 45 195
27 28 177
28 17 151
29 48 104
30 92 136
31 3 132
32 59 175
33 13 112
34 35 194
35 56 181
36 73 147
37 99 199
38 32 170
39 44 140
40 80 113
41 96 102
42 9 145
43 91 128
44 98 133
45 18 182
46 65 154
47 43 142
48 62 161
49 15 159
50 50 176
51 36 122
52 60 197
53 25 190
54 77 144
55 8 131
56 81 110
57 6 114
58 31 116
59 23 173
60 47 120
61 83 158
62 10 171
63 51 109
64 95 183
65 86 135
66 68 137
67 2 123
68 72 117
69 58 178
70 40 152
71 88 187
72 20 115
73 22 121
74 34 193
75 1 169
76 67 165
77 29 164
78 76 103
79 79 196
80 64 155
81 61 179
82 82 130
83 71 188
84 70 141
85 37 107
86 27 191
87 38 100
88 87 162
89 97 105
90 57 148
91 55 189
92 4 118
93 42 174
94 85 125
95 49 198
96 94 146
97 93 192
98 90 127
99 69 166
100 75 157
