kroA200 heuristic results iteration 26:
1 47 180
2 83 124
3 10 160
4 51 150
5 95 186
6 86 108
7 96 106
8 80 156
9 44 119
10 32 111
11 99 126
12 73 185
13 56 134
14 35 161
15 13 159
16 98 176
17 18 122
18 91 197
19 9 190
20 92 144
21 48 131
22 17 110
23 28 114
24 36 116
25 60 173
26 25 120
27 77 158
28 8 171
29 81 109
30 6 183
31 31 135
32 23 137
33 45 123
34 11 117
35 39 178
36 26 152
37 14 187
38 12 115
39 78 121
40 63 193
41 19 169
42 54 165
43 41 164
44 66 103
45 30 196
46 46 155
47 5 179
48 53 130
49 74 188
50 21 141
51 7 107
52 16 191
53 24 100
54 89 162
55 33 105
56 57 148
57 97 189
58 87 118
59 27 174
60 38 125
61 37 198
62 70 146
63 55 192
64 4 127
65 42 166
66 85 157
67 49 168
68 71 172
69 82 149
70 61 143
71 1 101
72 34 153
73 67 139
74 29 163
75 88 167
76 40 184
77 58 138
78 2 129
79 72 195
80 68 177
81 59 151
82 3 104
83 84 136
84 0 132
85 52 175
86 64 112
87 79 194
88 76 181
89 22 147
90 69 199
91 75 170
92 90 140
93 93 113
94 94 102
95 20 145
96 65 128
97 43 133
98 62 182
99 15 154
100 50 142
