kroA200 heuristic results iteration 17:
1 0 139
2 52 163
3 84 153
4 26 101
5 14 143
6 12 149
7 78 172
8 63 167
9 19 184
10 54 138
11 41 129
12 66 195
13 30 177
14 46 151
15 5 104
16 53 136
17 74 132
18 21 175
19 7 112
20 16 194
21 24 181
22 89 168
23 33 180
24 57 124
25 97 160
26 87 150
27 27 186
28 38 108
29 37 106
30 70 156
31 55 119
32 4 111
33 42 126
34 85 185
35 49 134
36 71 161
37 82 159
38 61 176
39 1 122
40 34 197
41 67 190
42 29 144
43 88 131
44 40 110
45 58 114
46 2 116
47 72 173
48 68 120
49 73 158
50 56 171
51 35 109
52 99 183
53 32 135
54 44 137
55 80 123
56 96 117
57 9 178
58 91 152
59 98 187
60 18 115
61 13 121
62 3 193
63 59 169
64 92 165
65 48 164
66 17 103
67 28 196
68 36 155
69 60 179
70 25 130
71 77 188
72 8 141
73 81 107
74 6 191
75 31 100
76 23 162
77 45 105
78 11 148
79 39 189
80 64 118
81 79 174
82 76 125
83 22 198
84 69 146
85 75 192
86 90 127
87 93 166
88 94 157
89 20 154
90 65 182
91 43 133
92 62 128
93 15 145
94 50 102
95 47 142
96 83 113
97 10 170
98 51 140
99 95 199
100 86 147
