kroA200 heuristic results iteration 48:
1 8 198
2 77 135
3 81 137
4 25 123
5 60 117
6 31 178
7 23 152
8 45 187
9 28 115
10 17 121
11 48 193
12 92 169
13 3 165
14 59 164
15 13 103
16 35 196
17 56 155
18 73 179
19 99 130
20 32 188
21 44 141
22 80 107
23 96 191
24 9 100
25 91 162
26 98 105
27 18 148
28 65 189
29 43 109
30 62 183
31 15 171
32 50 120
33 36 173
34 11 158
35 39 116
36 26 114
37 14 110
38 12 131
39 78 190
40 63 197
41 19 122
42 54 144
43 41 146
44 66 192
45 30 127
46 46 166
47 5 157
48 53 160
49 74 124
50 21 180
51 7 168
52 16 172
53 24 149
54 89 143
55 33 101
56 57 153
57 97 139
58 87 163
59 27 167
60 38 184
61 37 138
62 70 129
63 55 195
64 4 177
65 42 151
66 85 104
67 49 136
68 71 132
69 82 175
70 61 112
71 1 194
72 34 181
73 67 147
74 29 199
75 88 170
76 40 140
77 58 113
78 2 102
79 72 145
80 68 128
81 76 133
82 79 182
83 64 154
84 84 111
85 0 126
86 52 185
87 6 134
88 47 119
89 83 156
90 10 106
91 51 108
92 95 186
93 86 150
94 20 176
95 22 159
96 69 161
97 75 142
98 90 174
99 93 118
100 94 125
