kroA200 heuristic results iteration 87:
1 76 124
2 79 180
3 64 160
4 30 150
5 46 186
6 66 108
7 54 106
8 41 156
9 63 119
10 19 111
11 78 126
12 12 185
13 14 134
14 26 161
15 84 159
16 0 176
17 52 122
18 39 197
19 11 190
20 45 144
21 28 131
22 17 110
23 48 114
24 92 116
25 3 173
26 59 120
27 13 158
28 35 171
29 56 109
30 73 183
31 99 135
32 32 137
33 44 123
34 80 117
35 96 178
36 9 152
37 91 187
38 98 115
39 18 121
40 65 193
41 43 169
42 62 165
43 15 164
44 50 103
45 36 196
46 60 155
47 25 179
48 77 130
49 8 188
50 81 141
51 6 107
52 31 191
53 23 100
54 47 162
55 83 105
56 10 148
57 51 189
58 95 118
59 86 174
60 68 125
61 2 198
62 72 146
63 58 192
64 40 127
65 88 166
66 20 157
67 22 168
68 34 172
69 1 149
70 67 143
71 29 101
72 69 153
73 75 139
74 90 163
75 93 167
76 94 184
77 49 138
78 71 129
79 82 195
80 61 177
81 53 151
82 5 104
83 74 136
84 21 132
85 7 175
86 16 112
87 24 194
88 89 181
89 33 147
90 57 199
91 97 170
92 87 140
93 27 113
94 38 102
95 37 145
96 70 128
97 55 133
98 4 182
99 42 154
100 85 142
