kroA200 heuristic results iteration 51:
1 85 106
2 4 108
3 42 156
4 55 186
5 37 150
6 70 160
7 38 124
8 27 180
9 87 168
10 97 172
11 57 149
12 33 143
13 89 101
14 24 153
15 16 139
16 7 163
17 21 167
18 74 184
19 53 138
20 5 129
21 46 195
22 30 177
23 66 151
24 54 104
25 41 136
26 63 132
27 19 175
28 78 112
29 12 194
30 14 181
31 26 147
32 84 199
33 0 170
34 52 140
35 39 113
36 11 102
37 45 145
38 28 128
39 17 133
40 48 182
41 92 154
42 3 111
43 59 126
44 13 185
45 35 134
46 56 119
47 73 161
48 99 159
49 32 176
50 44 122
51 80 197
52 96 190
53 9 144
54 91 131
55 98 110
56 18 114
57 65 116
58 43 173
59 62 120
60 15 158
61 50 171
62 36 109
63 60 183
64 25 135
65 77 137
66 8 123
67 81 117
68 6 178
69 31 152
70 23 187
71 47 115
72 83 121
73 10 193
74 51 169
75 95 165
76 86 164
77 68 103
78 2 196
79 72 155
80 58 179
81 40 130
82 88 188
83 20 141
84 22 107
85 34 191
86 1 100
87 67 162
88 29 105
89 76 148
90 79 189
91 64 118
92 61 174
93 82 125
94 71 198
95 49 146
96 94 192
97 93 127
98 90 166
99 69 157
100 75 142
