kroA200 heuristic results iteration 40:
1 30 132
2 46 175
3 66 112
4 54 194
5 41 181
6 63 149
7 19 143
8 78 172
9 12 167
10 14 184
11 26 138
12 84 129
13 0 195
14 52 177
15 39 151
16 11 104
17 45 136
18 28 147
19 17 199
20 48 170
21 92 140
22 3 113
23 59 102
24 13 145
25 35 128
26 56 133
27 73 182
28 99 154
29 32 111
30 44 126
31 80 185
32 96 134
33 9 119
34 91 156
35 98 106
36 18 108
37 65 186
38 43 150
39 62 160
40 15 124
41 50 180
42 36 168
43 60 163
44 25 139
45 77 153
46 8 101
47 81 166
48 6 127
49 31 192
50 23 157
51 47 176
52 83 159
53 10 161
54 51 122
55 95 197
56 86 190
57 68 144
58 2 131
59 72 110
60 58 114
61 40 116
62 88 173
63 20 120
64 22 158
65 34 171
66 1 109
67 67 183
68 29 135
69 76 137
70 79 123
71 64 117
72 5 178
73 53 152
74 74 187
75 21 115
76 7 121
77 16 193
78 24 169
79 89 165
80 33 164
81 57 103
82 97 196
83 87 155
84 27 179
85 38 130
86 37 188
87 70 141
88 55 107
89 4 191
90 42 100
91 85 162
92 49 105
93 71 148
94 82 189
95 61 118
96 94 174
97 93 125
98 90 198
99 69 146
100 75 142
