kroA200 heuristic results iteration 85:
1 23 173
2 31 120
3 60 158
4 25 171
5 77 109
6 8 183
7 81 135
8 6 137
9 36 123
10 28 117
11 17 178
12 48 152
13 92 187
14 3 115
15 59 121
16 13 193
17 35 169
18 56 165
19 73 164
20 99 103
21 32 196
22 44 155
23 80 179
24 96 130
25 9 188
26 91 141
27 98 107
28 18 191
29 65 100
30 43 162
31 62 105
32 15 148
33 50 189
34 47 118
35 83 174
36 10 125
37 51 198
38 95 116
39 86 114
40 68 110
41 2 131
42 72 190
43 58 197
44 40 122
45 88 144
46 20 146
47 22 192
48 34 127
49 1 166
50 67 157
51 29 160
52 76 124
53 79 180
54 64 168
55 30 172
56 46 149
57 66 143
58 54 101
59 41 153
60 63 139
61 19 163
62 78 167
63 12 184
64 14 138
65 26 129
66 84 195
67 0 177
68 52 151
69 39 104
70 11 136
71 45 132
72 5 175
73 53 112
74 74 194
75 21 181
76 7 147
77 16 199
78 24 170
79 89 140
80 33 113
81 57 102
82 97 145
83 87 128
84 27 133
85 38 182
86 37 154
87 70 111
88 55 126
89 4 185
90 42 134
91 85 119
92 49 156
93 71 106
94 82 108
95 61 186
96 94 150
97 93 176
98 90 159
99 69 161
100 75 142
