kroA200 heuristic results iteration 70:
1 11 171
2 39 120
3 26 173
4 14 158
5 12 116
6 78 114
7 63 110
8 19 131
9 54 190
10 41 197
11 66 122
12 30 144
13 46 146
14 5 162
15 53 105
16 74 148
17 21 189
18 7 109
19 16 183
20 24 135
21 89 137
22 33 123
23 57 117
24 97 178
25 87 152
26 27 187
27 38 115
28 37 121
29 70 193
30 55 169
31 4 165
32 42 164
33 85 103
34 49 196
35 71 155
36 82 179
37 61 130
38 1 188
39 34 141
40 67 107
41 29 191
42 88 100
43 40 192
44 58 127
45 2 166
46 72 157
47 68 160
48 73 124
49 56 180
50 35 168
51 99 172
52 32 149
53 44 143
54 80 101
55 96 153
56 9 139
57 91 163
58 98 167
59 18 184
60 13 138
61 3 129
62 59 195
63 92 177
64 48 151
65 17 104
66 28 136
67 36 132
68 60 175
69 25 112
70 77 194
71 8 181
72 81 147
73 6 199
74 31 170
75 23 140
76 45 113
77 52 102
78 0 145
79 84 128
80 64 133
81 79 182
82 76 154
83 22 111
84 69 126
85 75 185
86 90 134
87 93 119
88 94 156
89 20 106
90 65 108
91 43 186
92 62 150
93 15 176
94 50 159
95 47 161
96 83 142
97 10 174
98 51 118
99 95 125
100 86 198
