kroA200 heuristic results iteration 99:
1 48 102
2 17 145
3 28 128
4 36 133
5 60 182
6 25 154
7 77 111
8 8 126
9 81 185
10 6 134
11 31 119
12 23 156
13 45 106
14 11 108
15 39 186
16 26 150
17 14 160
18 12 124
19 78 180
20 63 168
21 19 172
22 54 149
23 41 143
24 66 101
25 30 153
26 46 139
27 5 163
28 53 167
29 74 184
30 21 138
31 7 129
32 16 195
33 24 177
34 89 151
35 33 104
36 57 136
37 97 132
38 87 175
39 27 112
40 38 194
41 37 181
42 70 147
43 55 199
44 4 170
45 42 140
46 85 113
47 49 142
48 71 161
49 82 159
50 61 176
51 1 122
52 34 197
53 67 190
54 29 144
55 88 131
56 40 110
57 58 114
58 2 116
59 72 173
60 68 120
61 73 158
62 56 171
63 35 109
64 99 183
65 32 135
66 44 137
67 80 123
68 96 117
69 9 178
70 91 152
71 98 187
72 18 115
73 13 121
74 3 193
75 59 169
76 92 165
77 65 164
78 43 103
79 62 196
80 15 155
81 50 179
82 47 130
83 83 188
84 10 141
85 51 107
86 95 191
87 86 100
88 52 162
89 0 105
90 84 148
91 64 189
92 79 118
93 76 174
94 22 125
95 69 198
96 75 146
97 90 192
98 93 127
99 94 166
100 20 157
