kroA200 heuristic results iteration 77:
1 96 137
2 80 123
3 44 117
4 32 178
5 99 152
6 73 187
7 56 115
8 35 121
9 13 193
10 98 169
11 18 165
12 91 164
13 9 103
14 92 196
15 48 155
16 17 179
17 28 130
18 36 188
19 60 141
20 25 107
21 77 191
22 8 100
23 81 162
24 6 105
25 31 148
26 23 189
27 45 109
28 11 183
29 39 171
30 26 120
31 14 173
32 12 158
33 78 116
34 63 114
35 19 110
36 54 131
37 41 190
38 66 197
39 30 122
40 46 144
41 5 146
42 53 192
43 74 127
44 21 166
45 7 157
46 16 160
47 24 124
48 89 180
49 33 168
50 57 172
51 97 149
52 87 143
53 27 101
54 38 153
55 37 139
56 70 163
57 55 167
58 4 184
59 42 138
60 85 129
61 49 195
62 71 177
63 82 151
64 61 104
65 1 136
66 34 132
67 67 175
68 29 112
69 88 194
70 40 181
71 58 147
72 2 199
73 72 170
74 68 140
75 59 113
76 3 102
77 84 145
78 0 128
79 52 133
80 64 182
81 79 154
82 76 111
83 22 126
84 69 185
85 75 134
86 90 119
87 93 156
88 94 106
89 20 108
90 65 186
91 43 150
92 62 176
93 15 159
94 50 161
95 47 142
96 83 174
97 10 118
98 51 125
99 95 135
100 86 198
