kroA200 heuristic results iteration 53:
1 12 117
2 78 123
3 14 137
4 26 135
5 84 198
6 0 183
7 52 109
8 39 171
9 11 120
10 45 173
11 28 158
12 17 116
13 48 114
14 92 110
15 3 131
16 59 190
17 13 197
18 35 122
19 56 144
20 73 146
21 99 162
22 32 105
23 44 148
24 80 189
25 96 178
26 9 152
27 91 187
28 98 115
29 18 121
30 65 193
31 43 169
32 62 165
33 15 164
34 50 103
35 36 196
36 60 155
37 25 179
38 77 130
39 8 188
40 81 141
41 6 107
42 31 191
43 23 100
44 47 192
45 83 127
46 10 166
47 51 157
48 95 160
49 86 124
50 68 180
51 2 168
52 72 172
53 58 149
54 40 143
55 88 101
56 20 153
57 22 139
58 34 163
59 1 167
60 67 184
61 29 138
62 76 129
63 79 195
64 64 177
65 30 151
66 46 104
67 66 136
68 54 132
69 41 175
70 63 112
71 19 194
72 5 181
73 53 147
74 74 199
75 21 170
76 7 140
77 16 113
78 24 102
79 89 145
80 33 128
81 57 133
82 97 182
83 87 154
84 27 111
85 38 126
86 37 185
87 70 134
88 55 119
89 4 156
90 42 106
91 85 108
92 49 186
93 71 150
94 82 176
95 61 159
96 94 161
97 93 142
98 90 174
99 69 118
100 75 125
