hr_data/kroB200 heuristic results iteration 69:
1 52 133
2 69 180
3 38 137
4 39 165
5 66 107
6 4 151
7 61 145
8 25 160
9 99 173
10 55 106
11 68 174
12 74 166
13 29 135
14 79 128
15 19 157
16 37 121
17 85 141
18 48 122
19 67 110
20 9 189
21 20 116
22 89 193
23 0 131
24 94 196
25 97 197
26 11 148
27 70 169
28 26 188
29 60 149
30 34 100
31 93 126
32 56 123
33 33 187
34 6 178
35 83 112
36 57 140
37 51 183
38 53 114
39 42 162
40 88 153
41 86 190
42 59 176
43 73 142
44 65 170
45 3 103
46 82 143
47 5 192
48 14 159
49 32 152
50 63 104
51 13 102
52 41 182
53 1 139
54 12 105
55 77 158
56 16 184
57 44 117
58 35 124
59 95 119
60 91 108
61 18 109
62 43 125
63 40 186
64 17 154
65 23 191
66 76 118
67 15 136
68 49 150
69 54 199
70 21 101
71 22 147
72 87 129
73 36 134
74 71 161
75 64 163
76 78 115
77 80 195
78 46 185
79 45 164
80 24 113
81 8 167
82 31 132
83 58 144
84 75 198
85 98 130
86 7 177
87 28 179
88 96 175
89 90 171
90 27 156
91 2 168
92 10 172
93 92 138
94 84 181
95 72 146
96 81 120
97 47 155
98 30 194
99 62 127
100 50 111
