hr_data/kroB200 heuristic results iteration 55:
1 85 158
2 48 184
3 29 117
4 74 105
5 79 139
6 19 182
7 37 102
8 45 104
9 24 152
10 8 159
11 26 143
12 60 103
13 34 192
14 93 170
15 56 142
16 33 176
17 6 153
18 83 190
19 57 162
20 51 115
21 53 195
22 42 185
23 88 164
24 86 113
25 59 167
26 73 132
27 65 144
28 3 198
29 82 130
30 5 177
31 14 179
32 32 175
33 63 171
34 13 156
35 41 106
36 1 173
37 12 160
38 77 145
39 16 151
40 44 107
41 35 165
42 95 137
43 91 133
44 18 180
45 43 149
46 40 100
47 17 126
48 23 123
49 76 187
50 15 178
51 49 112
52 54 140
53 21 183
54 22 114
55 87 172
56 36 138
57 71 163
58 64 124
59 78 119
60 80 108
61 46 109
62 55 125
63 99 186
64 25 154
65 68 191
66 61 118
67 4 136
68 66 150
69 39 199
70 38 101
71 69 147
72 52 129
73 72 134
74 84 161
75 92 181
76 10 146
77 2 120
78 27 155
79 90 194
80 96 127
81 98 111
82 7 168
83 28 122
84 31 141
85 58 121
86 75 157
87 97 128
88 11 135
89 70 166
90 0 174
91 94 188
92 89 189
93 20 116
94 9 193
95 67 131
96 81 196
97 47 197
98 30 148
99 62 169
100 50 110
