hr_data/kroB200 heuristic results iteration 43:
1 96 189
2 98 116
3 7 193
4 28 131
5 31 196
6 58 197
7 75 148
8 90 169
9 27 188
10 2 110
11 10 137
12 92 165
13 84 107
14 72 151
15 52 145
16 69 160
17 38 173
18 39 106
19 66 174
20 4 166
21 61 135
22 25 128
23 99 157
24 55 121
25 68 141
26 74 122
27 29 133
28 79 180
29 19 149
30 37 100
31 85 126
32 48 123
33 67 187
34 9 178
35 20 112
36 89 140
37 0 183
38 94 114
39 97 162
40 11 153
41 70 190
42 26 176
43 60 142
44 34 170
45 93 103
46 56 143
47 33 192
48 6 159
49 83 152
50 57 104
51 51 102
52 53 182
53 42 139
54 88 105
55 86 158
56 59 184
57 73 117
58 65 124
59 3 119
60 82 108
61 5 109
62 14 125
63 32 186
64 63 154
65 13 191
66 41 118
67 1 136
68 12 150
69 77 199
70 16 101
71 44 147
72 35 129
73 95 134
74 91 161
75 18 163
76 43 115
77 40 195
78 17 185
79 23 164
80 76 113
81 15 167
82 49 132
83 54 144
84 21 198
85 22 130
86 87 177
87 36 179
88 71 175
89 64 171
90 78 156
91 80 168
92 46 172
93 45 138
94 24 181
95 8 146
96 81 120
97 47 155
98 30 194
99 62 127
100 50 111
