hr_data/kroB200 heuristic results iteration 83:
1 76 177
2 23 130
3 17 198
4 44 144
5 35 132
6 16 167
7 40 113
8 91 164
9 18 185
10 95 195
11 43 115
12 77 162
13 12 153
14 1 190
15 41 176
16 13 142
17 63 170
18 81 103
19 32 143
20 14 192
21 5 159
22 3 152
23 82 104
24 86 102
25 59 182
26 73 139
27 65 105
28 93 158
29 56 184
30 33 117
31 6 124
32 83 119
33 57 108
34 51 109
35 53 125
36 42 186
37 88 154
38 49 191
39 54 118
40 21 136
41 22 150
42 87 199
43 36 101
44 71 147
45 64 129
46 78 134
47 80 161
48 46 163
49 55 138
50 99 172
51 25 114
52 68 183
53 61 140
54 4 123
55 66 126
56 39 187
57 38 178
58 69 112
59 52 100
60 72 149
61 84 133
62 92 180
63 10 137
64 2 165
65 27 107
66 90 151
67 96 145
68 98 160
69 7 173
70 28 106
71 31 174
72 58 166
73 75 135
74 97 128
75 11 157
76 70 121
77 26 141
78 60 122
79 34 110
80 8 189
81 24 116
82 45 193
83 89 131
84 0 196
85 94 197
86 20 148
87 85 169
88 48 188
89 29 168
90 74 179
91 79 175
92 19 171
93 37 156
94 67 181
95 9 146
96 15 120
97 62 155
98 30 194
99 47 127
100 50 111
