hr_data/kroB200 heuristic results iteration 90:
1 82 196
2 3 131
3 5 193
4 14 116
5 32 189
6 63 188
7 13 110
8 41 137
9 1 165
10 12 107
11 77 151
12 16 145
13 44 160
14 35 173
15 95 106
16 91 174
17 18 166
18 43 135
19 40 128
20 17 157
21 23 121
22 76 141
23 15 122
24 49 133
25 42 180
26 88 149
27 86 100
28 59 126
29 73 123
30 65 187
31 93 178
32 56 112
33 33 140
34 6 183
35 83 114
36 57 162
37 51 153
38 53 190
39 71 176
40 36 142
41 64 170
42 78 103
43 80 143
44 46 192
45 55 159
46 99 152
47 25 104
48 68 102
49 61 182
50 4 139
51 66 105
52 39 158
53 38 184
54 69 117
55 52 124
56 72 119
57 84 108
58 92 109
59 10 125
60 2 186
61 27 154
62 90 191
63 96 118
64 98 136
65 7 150
66 28 199
67 31 101
68 58 147
69 75 129
70 97 134
71 11 161
72 70 163
73 26 115
74 60 195
75 34 185
76 8 164
77 24 113
78 45 167
79 89 132
80 0 144
81 94 198
82 20 130
83 85 177
84 48 179
85 29 175
86 74 171
87 79 156
88 19 168
89 37 172
90 67 138
91 9 181
92 87 146
93 21 120
94 22 155
95 54 194
96 81 127
97 47 111
98 30 169
99 62 148
100 50 197
