hr_data/kroB200 heuristic results iteration 27:
1 72 143
2 84 103
3 92 192
4 10 159
5 2 152
6 27 104
7 90 102
8 96 182
9 98 139
10 7 105
11 28 158
12 31 184
13 58 117
14 75 124
15 97 119
16 11 108
17 70 109
18 26 125
19 60 186
20 34 154
21 93 191
22 56 118
23 33 136
24 6 150
25 83 199
26 57 101
27 51 147
28 53 129
29 42 134
30 88 161
31 86 170
32 59 142
33 73 176
34 65 153
35 3 190
36 82 162
37 5 115
38 14 195
39 32 185
40 63 164
41 13 113
42 41 167
43 1 132
44 12 144
45 77 198
46 16 130
47 44 177
48 35 179
49 95 175
50 91 171
51 18 156
52 43 106
53 40 173
54 17 160
55 23 145
56 76 151
57 15 107
58 49 165
59 54 137
60 21 133
61 22 180
62 87 149
63 36 100
64 71 126
65 64 123
66 78 187
67 80 178
68 46 112
69 55 140
70 99 183
71 25 114
72 68 172
73 61 138
74 4 163
75 66 181
76 39 146
77 38 120
78 69 155
79 52 194
80 9 127
81 67 111
82 85 168
83 48 122
84 29 141
85 74 121
86 79 157
87 19 128
88 37 135
89 45 166
90 24 174
91 8 188
92 89 189
93 0 116
94 94 193
95 20 131
96 81 196
97 47 197
98 30 148
99 62 169
100 50 110
