hr_data/kroB200 heuristic results iteration 75:
1 24 170
2 8 103
3 45 143
4 26 192
5 60 159
6 34 152
7 93 104
8 56 102
9 33 182
10 6 139
11 83 105
12 57 158
13 51 184
14 53 117
15 42 124
16 88 119
17 86 108
18 59 109
19 73 125
20 65 186
21 3 154
22 82 191
23 5 118
24 14 136
25 32 150
26 63 199
27 13 101
28 41 147
29 1 129
30 12 134
31 77 161
32 16 142
33 44 176
34 35 153
35 95 190
36 91 162
37 18 115
38 43 195
39 40 185
40 17 164
41 23 113
42 76 167
43 15 132
44 49 144
45 54 198
46 21 130
47 22 177
48 87 179
49 36 175
50 71 171
51 64 156
52 78 106
53 80 173
54 46 160
55 55 145
56 99 151
57 25 107
58 68 165
59 61 137
60 4 133
61 66 180
62 39 149
63 38 100
64 69 126
65 52 123
66 72 187
67 84 178
68 92 112
69 10 140
70 2 183
71 27 114
72 90 172
73 96 138
74 98 163
75 7 181
76 28 146
77 31 120
78 58 155
79 75 194
80 97 127
81 11 111
82 70 168
83 0 122
84 94 141
85 89 121
86 20 157
87 85 128
88 48 135
89 29 166
90 74 174
91 79 188
92 19 189
93 37 116
94 67 193
95 9 131
96 81 196
97 47 197
98 30 148
99 62 169
100 50 110
