hr_data/kroB200 heuristic results iteration 74:
1 87 178
2 21 112
3 22 187
4 54 123
5 49 126
6 42 140
7 88 183
8 86 114
9 59 162
10 73 153
11 65 190
12 3 176
13 82 142
14 5 170
15 14 103
16 32 143
17 63 192
18 13 159
19 41 152
20 1 104
21 12 102
22 77 182
23 16 139
24 44 105
25 35 158
26 95 184
27 91 117
28 18 124
29 43 119
30 40 108
31 17 109
32 23 125
33 76 186
34 15 154
35 81 191
36 47 118
37 30 136
38 62 150
39 50 199
40 51 101
41 53 147
42 57 129
43 83 134
44 6 161
45 56 163
46 93 115
47 60 195
48 34 185
49 26 164
50 70 113
51 11 167
52 97 132
53 94 144
54 0 198
55 89 130
56 20 177
57 85 179
58 48 175
59 29 171
60 74 156
61 79 106
62 19 173
63 37 160
64 45 145
65 24 151
66 8 107
67 33 165
68 71 137
69 36 133
70 64 180
71 78 149
72 80 100
73 46 193
74 55 131
75 99 196
76 25 116
77 68 189
78 61 188
79 4 110
80 66 169
81 39 148
82 38 197
83 69 121
84 52 141
85 72 122
86 84 157
87 92 128
88 10 135
89 2 166
90 27 174
91 90 168
92 96 172
93 98 138
94 7 181
95 28 146
96 31 120
97 58 155
98 75 194
99 9 127
100 67 111
