hr_data/kroB200 heuristic results iteration 24:
1 64 138
2 78 172
3 80 114
4 46 162
5 36 153
6 71 190
7 19 176
8 79 142
9 37 170
10 85 103
11 48 143
12 29 192
13 74 159
14 68 152
15 25 104
16 99 102
17 55 182
18 61 139
19 4 105
20 66 158
21 39 184
22 38 117
23 69 124
24 52 119
25 72 108
26 84 109
27 92 125
28 10 186
29 2 154
30 27 191
31 90 118
32 96 136
33 98 150
34 7 199
35 28 101
36 31 147
37 58 129
38 75 134
39 97 161
40 11 163
41 70 115
42 26 195
43 60 185
44 34 164
45 93 113
46 56 167
47 33 132
48 6 144
49 83 198
50 57 130
51 51 177
52 53 179
53 42 175
54 88 171
55 86 156
56 59 106
57 73 173
58 65 160
59 3 145
60 82 151
61 5 107
62 14 165
63 32 137
64 63 133
65 13 180
66 41 149
67 1 100
68 12 126
69 77 123
70 16 187
71 44 178
72 35 112
73 95 140
74 91 183
75 18 168
76 43 122
77 40 141
78 17 121
79 23 157
80 76 128
81 15 135
82 49 166
83 54 174
84 21 188
85 22 189
86 87 116
87 24 193
88 8 131
89 45 196
90 89 197
91 0 148
92 94 169
93 20 110
94 9 181
95 67 146
96 81 120
97 47 155
98 30 194
99 62 127
100 50 111
