hr_data/kroB200 heuristic results iteration 82:
1 90 127
2 27 111
3 96 146
4 98 120
5 7 155
6 28 194
7 31 109
8 58 108
9 75 154
10 97 125
11 11 186
12 70 191
13 26 118
14 60 136
15 34 150
16 93 199
17 56 101
18 33 147
19 6 129
20 83 134
21 57 161
22 51 152
23 53 159
24 42 143
25 88 103
26 86 192
27 59 170
28 73 142
29 65 176
30 3 153
31 82 190
32 5 162
33 14 115
34 32 195
35 63 185
36 13 164
37 41 113
38 1 167
39 12 132
40 77 144
41 16 198
42 44 130
43 35 177
44 95 179
45 91 175
46 18 171
47 43 156
48 40 106
49 17 173
50 23 160
51 76 145
52 15 151
53 49 107
54 54 165
55 21 137
56 22 133
57 87 180
58 36 149
59 71 100
60 64 126
61 78 123
62 80 187
63 46 178
64 55 112
65 99 140
66 25 183
67 68 114
68 61 172
69 4 138
70 66 163
71 39 158
72 38 184
73 69 117
74 52 105
75 72 139
76 84 182
77 92 102
78 10 104
79 2 119
80 94 124
81 0 181
82 89 168
83 20 122
84 85 141
85 48 121
86 29 157
87 74 128
88 79 135
89 19 166
90 37 174
91 45 188
92 24 189
93 8 116
94 67 193
95 9 131
96 81 196
97 47 197
98 30 148
99 62 169
100 50 110
