hr_data/kroB200 heuristic results iteration 15:
1 58 120
2 75 146
3 98 111
4 7 127
5 28 155
6 31 194
7 97 109
8 11 108
9 70 154
10 26 125
11 60 186
12 34 191
13 93 118
14 56 136
15 33 150
16 6 199
17 83 101
18 57 147
19 51 129
20 53 134
21 42 161
22 88 152
23 86 159
24 59 143
25 73 103
26 65 192
27 3 170
28 82 142
29 5 176
30 14 153
31 32 190
32 63 162
33 13 115
34 41 195
35 1 185
36 12 164
37 77 113
38 16 167
39 44 132
40 35 144
41 95 198
42 91 130
43 18 177
44 43 179
45 40 175
46 17 171
47 23 156
48 76 106
49 15 173
50 49 160
51 54 145
52 21 151
53 22 107
54 87 165
55 36 137
56 71 133
57 64 180
58 78 149
59 80 100
60 46 126
61 55 123
62 99 187
63 25 178
64 68 112
65 61 140
66 4 183
67 66 114
68 39 172
69 38 138
70 69 163
71 52 158
72 72 184
73 84 117
74 92 105
75 10 139
76 2 182
77 27 102
78 90 104
79 96 119
80 94 124
81 0 181
82 89 168
83 20 122
84 85 141
85 48 121
86 29 157
87 74 128
88 79 135
89 19 166
90 37 174
91 45 188
92 24 189
93 8 116
94 67 193
95 9 131
96 81 196
97 47 197
98 30 148
99 62 169
100 50 110
