hr_data/kroB200 heuristic results iteration 64:
1 63 153
2 13 190
3 41 162
4 1 115
5 12 176
6 77 142
7 16 170
8 44 103
9 35 143
10 95 192
11 91 159
12 18 152
13 43 104
14 40 102
15 17 182
16 23 139
17 76 105
18 15 158
19 49 184
20 42 117
21 88 124
22 86 119
23 59 108
24 73 109
25 65 125
26 3 186
27 82 154
28 5 191
29 14 118
30 32 136
31 81 150
32 47 199
33 30 101
34 62 147
35 50 129
36 54 134
37 21 161
38 22 163
39 87 195
40 53 185
41 51 164
42 57 113
43 83 167
44 6 132
45 56 144
46 93 198
47 60 130
48 34 177
49 26 179
50 70 175
51 11 171
52 97 156
53 94 106
54 0 173
55 89 160
56 20 145
57 85 151
58 48 107
59 29 165
60 74 137
61 79 133
62 19 180
63 37 149
64 45 100
65 24 126
66 8 123
67 33 187
68 71 178
69 36 112
70 64 140
71 78 183
72 80 114
73 46 172
74 55 138
75 99 168
76 25 122
77 68 141
78 61 121
79 4 157
80 66 128
81 39 135
82 38 166
83 69 174
84 52 188
85 72 189
86 84 116
87 92 193
88 10 131
89 2 196
90 27 197
91 90 148
92 96 169
93 98 110
94 7 181
95 28 146
96 31 120
97 58 155
98 75 194
99 9 127
100 67 111
