hr_data/kroB200 heuristic results iteration 21:
1 23 136
2 17 150
3 76 199
4 15 101
5 1 118
6 12 161
7 77 134
8 16 129
9 44 147
10 35 191
11 95 154
12 91 125
13 18 186
14 43 108
15 40 109
16 62 119
17 30 124
18 47 117
19 81 184
20 63 158
21 13 139
22 41 182
23 32 105
24 14 102
25 5 104
26 3 152
27 82 159
28 86 143
29 59 103
30 73 192
31 65 170
32 93 142
33 56 176
34 33 153
35 6 190
36 83 162
37 57 115
38 51 195
39 53 185
40 42 164
41 88 113
42 49 167
43 54 132
44 21 144
45 22 198
46 87 130
47 36 177
48 71 179
49 64 175
50 78 171
51 80 156
52 46 106
53 55 173
54 99 160
55 25 145
56 68 151
57 61 107
58 4 165
59 66 137
60 39 133
61 38 180
62 69 149
63 52 100
64 72 126
65 84 123
66 92 187
67 10 178
68 2 112
69 27 140
70 90 183
71 96 114
72 98 172
73 7 138
74 28 163
75 31 181
76 58 146
77 75 120
78 97 155
79 11 194
80 70 127
81 26 111
82 60 168
83 34 122
84 8 141
85 24 121
86 45 157
87 89 128
88 0 135
89 94 166
90 20 174
91 85 188
92 48 189
93 29 116
94 74 193
95 79 131
96 19 196
97 37 197
98 67 148
99 9 169
100 50 110
