hr_data/kroB200 heuristic results iteration 53:
1 24 192
2 8 143
3 45 103
4 26 170
5 60 142
6 34 176
7 93 153
8 56 190
9 33 162
10 6 115
11 83 195
12 57 185
13 51 164
14 53 113
15 42 167
16 88 132
17 86 144
18 59 198
19 73 130
20 65 177
21 3 179
22 82 175
23 5 171
24 14 156
25 32 106
26 63 173
27 13 160
28 41 145
29 1 151
30 12 107
31 77 165
32 16 137
33 44 133
34 35 180
35 95 149
36 91 100
37 18 126
38 43 123
39 40 187
40 17 178
41 23 112
42 76 140
43 15 183
44 49 114
45 54 172
46 21 138
47 22 163
48 87 158
49 36 184
50 71 117
51 64 105
52 78 139
53 80 182
54 46 102
55 55 104
56 99 152
57 25 159
58 68 161
59 61 136
60 4 150
61 66 199
62 39 101
63 38 118
64 69 191
65 52 147
66 72 129
67 84 134
68 92 154
69 10 125
70 2 186
71 27 108
72 90 109
73 96 119
74 98 124
75 7 181
76 28 146
77 31 120
78 58 155
79 75 194
80 97 127
81 11 111
82 70 168
83 0 122
84 94 141
85 89 121
86 20 157
87 85 128
88 48 135
89 29 166
90 74 174
91 79 188
92 19 189
93 37 116
94 67 193
95 9 131
96 81 196
97 47 197
98 30 148
99 62 169
100 50 110
