hr_data/kroB200 heuristic results iteration 36:
1 89 179
2 0 175
3 94 177
4 97 130
5 11 198
6 70 144
7 26 132
8 60 167
9 34 113
10 93 164
11 56 185
12 33 195
13 6 115
14 83 162
15 57 153
16 51 190
17 53 176
18 42 142
19 88 170
20 86 103
21 59 143
22 73 192
23 65 159
24 3 152
25 82 104
26 5 102
27 14 182
28 32 139
29 63 105
30 13 158
31 41 184
32 1 117
33 12 124
34 77 119
35 16 108
36 44 109
37 35 125
38 95 186
39 91 154
40 18 191
41 43 118
42 40 136
43 17 150
44 23 199
45 76 101
46 15 147
47 49 129
48 54 134
49 21 161
50 22 163
51 87 138
52 36 172
53 71 114
54 64 183
55 78 140
56 80 123
57 46 126
58 55 187
59 99 178
60 25 112
61 68 100
62 61 149
63 4 133
64 66 180
65 39 137
66 38 165
67 69 107
68 52 151
69 72 145
70 84 160
71 92 173
72 10 106
73 2 174
74 27 166
75 90 135
76 96 128
77 98 157
78 7 121
79 28 141
80 31 122
81 58 110
82 75 189
83 20 116
84 85 193
85 48 131
86 29 196
87 74 197
88 79 148
89 19 169
90 37 188
91 45 168
92 24 171
93 8 156
94 67 181
95 9 146
96 81 120
97 47 155
98 30 194
99 62 127
100 50 111
