hr_data/kroB200 heuristic results iteration 93:
1 24 198
2 8 130
3 45 177
4 26 179
5 60 175
6 34 171
7 93 156
8 56 144
9 33 132
10 6 167
11 83 113
12 57 164
13 51 185
14 53 195
15 42 115
16 88 162
17 86 153
18 59 190
19 73 176
20 65 142
21 3 170
22 82 103
23 5 143
24 14 192
25 32 159
26 63 152
27 13 104
28 41 102
29 1 182
30 12 139
31 77 105
32 16 158
33 44 184
34 35 117
35 95 124
36 91 119
37 18 108
38 43 109
39 40 125
40 17 186
41 23 154
42 76 191
43 15 118
44 49 136
45 54 150
46 21 199
47 22 101
48 87 147
49 36 129
50 71 134
51 64 161
52 78 163
53 80 138
54 46 172
55 55 114
56 99 183
57 25 140
58 68 123
59 61 126
60 4 187
61 66 178
62 39 112
63 38 100
64 69 149
65 52 133
66 72 180
67 84 137
68 92 165
69 10 107
70 2 151
71 27 145
72 90 160
73 96 173
74 98 106
75 7 174
76 28 166
77 31 135
78 58 128
79 75 157
80 97 121
81 11 141
82 70 122
83 0 110
84 94 189
85 89 116
86 20 193
87 85 131
88 48 196
89 29 197
90 74 148
91 79 169
92 19 188
93 37 168
94 67 181
95 9 146
96 81 120
97 47 155
98 30 194
99 62 127
100 50 111
