hr_data/kroB200 heuristic results iteration 88:
1 3 177
2 82 130
3 5 198
4 14 144
5 32 132
6 63 167
7 13 113
8 41 164
9 1 185
10 12 195
11 77 115
12 16 162
13 44 153
14 35 190
15 95 176
16 91 142
17 18 170
18 43 103
19 40 143
20 17 192
21 23 159
22 76 152
23 15 104
24 49 102
25 42 182
26 88 139
27 86 105
28 59 158
29 73 184
30 65 117
31 93 124
32 56 119
33 33 108
34 6 109
35 83 125
36 57 186
37 51 154
38 53 191
39 71 118
40 36 136
41 64 150
42 78 199
43 80 101
44 46 147
45 55 129
46 99 134
47 25 161
48 68 163
49 61 138
50 4 172
51 66 114
52 39 183
53 38 140
54 69 123
55 52 126
56 72 187
57 84 178
58 92 112
59 10 100
60 2 149
61 27 133
62 90 180
63 96 137
64 98 165
65 7 107
66 28 151
67 31 145
68 58 160
69 75 173
70 97 106
71 11 174
72 70 166
73 26 135
74 60 128
75 34 157
76 8 121
77 24 141
78 45 122
79 89 110
80 0 189
81 94 116
82 20 193
83 85 131
84 48 196
85 29 197
86 74 148
87 79 169
88 19 188
89 37 168
90 67 179
91 9 175
92 87 171
93 21 156
94 22 181
95 54 146
96 81 120
97 47 155
98 30 194
99 62 127
100 50 111
