hr_data/kroB200 heuristic results iteration 11:
1 15 132
2 1 167
3 12 113
4 77 164
5 16 185
6 44 195
7 35 115
8 95 162
9 91 153
10 18 190
11 43 176
12 40 142
13 17 170
14 23 103
15 76 143
16 49 192
17 42 159
18 88 152
19 86 104
20 59 102
21 73 182
22 65 139
23 3 105
24 82 158
25 5 184
26 14 117
27 32 124
28 63 119
29 13 108
30 41 109
31 81 125
32 47 186
33 30 154
34 62 191
35 50 118
36 54 136
37 21 150
38 22 199
39 87 101
40 53 147
41 51 129
42 57 134
43 83 161
44 6 163
45 56 138
46 93 172
47 60 114
48 34 183
49 26 140
50 70 123
51 11 126
52 97 187
53 94 178
54 0 112
55 89 100
56 20 149
57 85 133
58 48 180
59 29 137
60 74 165
61 79 107
62 19 151
63 37 145
64 45 160
65 24 173
66 8 106
67 33 174
68 71 166
69 36 135
70 64 128
71 78 157
72 80 121
73 46 141
74 55 122
75 99 110
76 25 189
77 68 116
78 61 193
79 4 131
80 66 196
81 39 197
82 38 148
83 69 169
84 52 188
85 72 168
86 84 179
87 92 175
88 10 177
89 2 130
90 27 198
91 90 144
92 96 156
93 98 171
94 7 181
95 28 146
96 31 120
97 58 155
98 75 194
99 9 127
100 67 111
