hr_data/kroB200 heuristic results iteration 66:
1 2 129
2 10 199
3 92 101
4 84 150
5 72 136
6 52 118
7 69 161
8 38 134
9 39 159
10 66 143
11 4 103
12 61 192
13 25 170
14 99 142
15 55 176
16 68 153
17 74 190
18 29 162
19 79 115
20 19 195
21 37 185
22 85 164
23 48 113
24 67 167
25 9 132
26 20 144
27 89 198
28 0 130
29 94 177
30 97 179
31 11 175
32 70 171
33 26 156
34 60 106
35 34 173
36 93 160
37 56 145
38 33 151
39 6 107
40 83 165
41 57 137
42 51 133
43 53 180
44 42 149
45 88 100
46 86 126
47 59 123
48 73 187
49 65 178
50 3 112
51 82 140
52 5 183
53 14 114
54 32 172
55 63 138
56 13 163
57 41 158
58 1 184
59 12 117
60 77 105
61 16 139
62 44 182
63 35 102
64 95 104
65 91 152
66 18 191
67 43 147
68 40 154
69 17 125
70 23 186
71 76 108
72 15 109
73 49 119
74 54 124
75 21 181
76 22 146
77 87 120
78 36 155
79 71 194
80 64 127
81 78 111
82 80 168
83 46 122
84 45 141
85 24 121
86 8 157
87 31 128
88 58 135
89 75 166
90 98 174
91 7 188
92 28 189
93 96 116
94 90 193
95 27 131
96 81 196
97 47 197
98 30 148
99 62 169
100 50 110
