hr_data/kroB200 heuristic results iteration 7:
1 58 105
2 75 139
3 98 182
4 7 102
5 28 158
6 31 184
7 97 117
8 11 124
9 70 119
10 26 108
11 60 109
12 34 125
13 93 186
14 56 154
15 33 191
16 6 118
17 83 136
18 57 150
19 51 199
20 53 101
21 42 147
22 88 129
23 86 134
24 59 161
25 73 152
26 65 159
27 3 143
28 82 103
29 5 192
30 14 170
31 32 142
32 63 176
33 13 153
34 41 190
35 1 162
36 12 115
37 77 195
38 16 185
39 44 164
40 35 113
41 95 167
42 91 132
43 18 144
44 43 198
45 40 130
46 17 177
47 23 179
48 76 175
49 15 171
50 49 156
51 54 106
52 21 173
53 22 160
54 87 145
55 36 151
56 71 107
57 64 165
58 78 137
59 80 133
60 46 180
61 55 149
62 99 100
63 25 126
64 68 123
65 61 187
66 4 178
67 66 112
68 39 140
69 38 183
70 69 114
71 52 172
72 72 138
73 84 163
74 92 104
75 10 181
76 2 146
77 27 120
78 90 155
79 96 194
80 94 127
81 0 111
82 89 168
83 20 122
84 85 141
85 48 121
86 29 157
87 74 128
88 79 135
89 19 166
90 37 174
91 45 188
92 24 189
93 8 116
94 67 193
95 9 131
96 81 196
97 47 197
98 30 148
99 62 169
100 50 110
