hr_data/kroB200 heuristic results iteration 70:
1 9 118
2 67 136
3 85 150
4 48 199
5 29 101
6 74 147
7 79 191
8 19 154
9 37 125
10 45 186
11 24 108
12 8 109
13 26 119
14 60 124
15 34 117
16 93 184
17 56 158
18 33 139
19 6 182
20 83 105
21 57 102
22 51 104
23 53 152
24 42 159
25 88 143
26 86 103
27 59 192
28 73 170
29 65 142
30 3 176
31 82 153
32 5 190
33 14 162
34 32 115
35 63 195
36 13 185
37 41 164
38 1 113
39 12 167
40 77 132
41 16 144
42 44 198
43 35 130
44 95 177
45 91 179
46 18 175
47 43 171
48 40 156
49 17 106
50 23 173
51 76 160
52 15 145
53 49 151
54 54 107
55 21 165
56 22 137
57 87 133
58 36 180
59 71 149
60 64 100
61 78 126
62 80 123
63 46 187
64 55 178
65 99 112
66 25 140
67 68 183
68 61 114
69 4 172
70 66 138
71 39 163
72 38 181
73 69 146
74 52 120
75 72 155
76 84 194
77 92 127
78 10 111
79 2 161
80 27 134
81 90 129
82 96 168
83 98 122
84 7 141
85 28 121
86 31 157
87 58 128
88 75 135
89 97 166
90 11 174
91 70 188
92 0 189
93 94 116
94 89 193
95 20 131
96 81 196
97 47 197
98 30 148
99 62 169
100 50 110
