hr_data/kroB200 heuristic results iteration 61:
1 40 103
2 16 143
3 44 192
4 35 159
5 95 152
6 91 104
7 18 102
8 43 182
9 17 139
10 23 105
11 76 158
12 15 184
13 1 117
14 12 124
15 77 119
16 62 108
17 30 109
18 47 125
19 81 186
20 63 154
21 13 191
22 41 118
23 32 136
24 14 150
25 5 199
26 3 101
27 82 147
28 86 129
29 59 134
30 73 161
31 65 170
32 93 142
33 56 176
34 33 153
35 6 190
36 83 162
37 57 115
38 51 195
39 53 185
40 42 164
41 88 113
42 49 167
43 54 132
44 21 144
45 22 198
46 87 130
47 36 177
48 71 179
49 64 175
50 78 171
51 80 156
52 46 106
53 55 173
54 99 160
55 25 145
56 68 151
57 61 107
58 4 165
59 66 137
60 39 133
61 38 180
62 69 149
63 52 100
64 72 126
65 84 123
66 92 187
67 10 178
68 2 112
69 27 140
70 90 183
71 96 114
72 98 172
73 7 138
74 28 163
75 31 181
76 58 146
77 75 120
78 97 155
79 11 194
80 70 127
81 26 111
82 60 168
83 34 122
84 8 141
85 24 121
86 45 157
87 89 128
88 0 135
89 94 166
90 20 174
91 85 188
92 48 189
93 29 116
94 74 193
95 79 131
96 19 196
97 37 197
98 67 148
99 9 169
100 50 110
