hr_data/kroB200 heuristic results iteration 81:
1 41 149
2 1 100
3 12 126
4 77 123
5 16 187
6 44 178
7 35 112
8 95 140
9 91 183
10 18 114
11 43 162
12 40 153
13 17 190
14 23 176
15 76 142
16 15 170
17 13 103
18 63 143
19 81 192
20 32 159
21 14 152
22 5 104
23 3 102
24 82 182
25 86 139
26 59 105
27 73 158
28 65 184
29 93 117
30 56 124
31 33 119
32 6 108
33 83 109
34 57 125
35 51 186
36 53 154
37 42 191
38 88 118
39 49 136
40 54 150
41 21 199
42 22 101
43 87 147
44 36 129
45 71 134
46 64 161
47 78 163
48 80 115
49 46 195
50 55 185
51 99 164
52 25 113
53 68 167
54 61 132
55 4 144
56 66 198
57 39 130
58 38 177
59 69 179
60 52 175
61 72 171
62 84 156
63 92 106
64 10 173
65 2 160
66 27 145
67 90 151
68 96 107
69 98 165
70 7 137
71 28 133
72 31 180
73 58 110
74 75 189
75 97 116
76 11 193
77 70 131
78 26 196
79 60 197
80 34 148
81 8 169
82 24 188
83 45 141
84 89 122
85 0 121
86 94 157
87 20 128
88 85 135
89 48 166
90 29 174
91 74 168
92 79 172
93 19 138
94 37 181
95 67 146
96 9 120
97 62 155
98 30 194
99 47 127
100 50 111
