hr_data/kroB200 heuristic results iteration 3:
1 64 144
2 78 132
3 80 167
4 46 113
5 36 164
6 71 185
7 19 195
8 79 115
9 37 162
10 85 153
11 48 190
12 29 176
13 74 142
14 68 170
15 25 103
16 99 143
17 55 192
18 61 159
19 4 152
20 66 104
21 39 102
22 38 182
23 69 139
24 52 105
25 72 158
26 84 184
27 92 117
28 10 124
29 2 119
30 27 108
31 90 109
32 96 125
33 98 186
34 7 154
35 28 191
36 31 118
37 58 136
38 75 150
39 97 199
40 11 101
41 70 147
42 26 129
43 60 134
44 34 161
45 93 163
46 56 138
47 33 172
48 6 114
49 83 183
50 57 140
51 51 123
52 53 126
53 42 187
54 88 178
55 86 112
56 59 100
57 73 149
58 65 133
59 3 180
60 82 137
61 5 165
62 14 107
63 32 151
64 63 145
65 13 160
66 41 173
67 1 106
68 12 174
69 77 166
70 16 135
71 44 128
72 35 157
73 95 121
74 91 141
75 18 122
76 43 110
77 40 189
78 17 116
79 23 193
80 76 131
81 15 196
82 49 197
83 54 148
84 21 169
85 22 188
86 87 168
87 24 179
88 8 175
89 45 177
90 89 130
91 0 198
92 94 156
93 20 171
94 9 181
95 67 146
96 81 120
97 47 155
98 30 194
99 62 127
100 50 111
