hr_data/kroB200 heuristic results iteration 79:
1 68 126
2 25 123
3 99 187
4 55 178
5 61 112
6 4 100
7 66 149
8 39 133
9 38 180
10 69 137
11 52 165
12 72 107
13 84 151
14 92 145
15 10 160
16 2 173
17 27 106
18 90 174
19 96 166
20 98 135
21 7 128
22 28 157
23 31 121
24 58 141
25 75 122
26 97 110
27 11 189
28 70 116
29 26 193
30 60 131
31 34 196
32 93 197
33 56 148
34 33 169
35 6 188
36 83 183
37 57 140
38 51 172
39 53 138
40 42 190
41 88 153
42 86 162
43 59 115
44 73 176
45 65 142
46 3 170
47 82 103
48 5 143
49 14 192
50 32 159
51 63 152
52 13 104
53 41 102
54 1 182
55 12 139
56 77 105
57 16 158
58 44 184
59 35 117
60 95 124
61 91 119
62 18 108
63 43 109
64 40 125
65 17 186
66 23 154
67 76 191
68 15 118
69 49 136
70 54 150
71 21 199
72 22 101
73 87 147
74 36 129
75 71 134
76 64 161
77 78 163
78 80 195
79 46 185
80 74 164
81 29 113
82 79 167
83 19 132
84 37 144
85 85 198
86 48 130
87 67 177
88 9 179
89 20 175
90 89 171
91 0 156
92 94 168
93 45 114
94 24 181
95 8 146
96 81 120
97 47 155
98 30 194
99 62 127
100 50 111
