hr_data/kroB200 heuristic results iteration 9:
1 97 169
2 11 148
3 70 197
4 26 116
5 60 189
6 34 188
7 93 110
8 56 193
9 33 131
10 6 196
11 83 149
12 57 100
13 51 126
14 53 123
15 42 187
16 88 178
17 86 112
18 59 140
19 73 183
20 65 114
21 3 162
22 82 153
23 5 190
24 14 176
25 32 142
26 63 170
27 13 103
28 41 143
29 1 192
30 12 159
31 77 152
32 16 104
33 44 102
34 35 182
35 95 139
36 91 105
37 18 158
38 43 184
39 40 117
40 17 124
41 23 119
42 76 108
43 15 109
44 49 125
45 54 186
46 21 154
47 22 191
48 87 118
49 36 136
50 71 150
51 64 199
52 78 101
53 80 147
54 46 129
55 55 134
56 99 161
57 25 163
58 68 115
59 61 195
60 4 185
61 66 164
62 39 113
63 38 167
64 69 132
65 52 144
66 72 198
67 84 130
68 92 177
69 10 179
70 2 175
71 27 171
72 90 156
73 96 106
74 98 173
75 7 160
76 28 145
77 31 151
78 58 107
79 75 165
80 94 137
81 0 133
82 89 180
83 20 122
84 85 141
85 48 121
86 29 157
87 74 128
88 79 135
89 19 166
90 37 174
91 45 168
92 24 172
93 8 138
94 67 181
95 9 146
96 81 120
97 47 155
98 30 194
99 62 127
100 50 111
