hr_data/kroB200 heuristic results iteration 54:
1 24 121
2 8 141
3 45 122
4 26 165
5 60 107
6 34 151
7 93 137
8 56 133
9 33 180
10 6 149
11 83 100
12 57 126
13 51 123
14 53 187
15 42 178
16 88 112
17 86 140
18 59 183
19 73 114
20 65 162
21 3 153
22 82 190
23 5 176
24 14 142
25 32 170
26 63 103
27 13 143
28 41 192
29 1 159
30 12 152
31 77 104
32 16 102
33 44 182
34 35 139
35 95 105
36 91 158
37 18 184
38 43 117
39 40 124
40 17 119
41 23 108
42 76 109
43 15 125
44 49 186
45 54 154
46 21 191
47 22 118
48 87 136
49 36 150
50 71 199
51 64 101
52 78 147
53 80 129
54 46 134
55 55 161
56 99 163
57 25 115
58 68 195
59 61 185
60 4 164
61 66 113
62 39 167
63 38 132
64 69 144
65 52 198
66 72 130
67 84 177
68 92 179
69 10 175
70 2 171
71 27 156
72 90 106
73 96 173
74 98 160
75 7 145
76 28 168
77 31 172
78 58 138
79 75 181
80 97 146
81 11 120
82 70 155
83 0 194
84 94 127
85 89 111
86 20 174
87 85 166
88 48 135
89 29 128
90 74 157
91 79 169
92 19 148
93 37 197
94 67 116
95 9 189
96 81 188
97 47 110
98 30 193
99 62 131
100 50 196
