hr_data/kroB200 heuristic results iteration 33:
1 52 147
2 69 101
3 38 199
4 39 150
5 66 136
6 4 118
7 61 161
8 25 134
9 99 129
10 55 191
11 68 154
12 74 125
13 29 186
14 79 108
15 19 109
16 37 119
17 85 124
18 48 117
19 67 184
20 9 158
21 20 139
22 89 182
23 0 105
24 94 102
25 97 104
26 11 152
27 70 159
28 26 143
29 60 103
30 34 192
31 93 170
32 56 142
33 33 176
34 6 153
35 83 190
36 57 162
37 51 115
38 53 195
39 42 185
40 88 164
41 86 113
42 59 167
43 73 132
44 65 144
45 3 198
46 82 130
47 5 177
48 14 179
49 32 175
50 63 171
51 13 156
52 41 106
53 1 173
54 12 160
55 77 145
56 16 151
57 44 107
58 35 165
59 95 137
60 91 133
61 18 180
62 43 149
63 40 100
64 17 126
65 23 123
66 76 187
67 15 178
68 49 112
69 54 140
70 21 183
71 22 114
72 87 172
73 36 138
74 71 163
75 64 181
76 78 146
77 80 120
78 46 155
79 45 194
80 24 127
81 8 111
82 31 168
83 58 122
84 75 141
85 98 121
86 7 157
87 28 128
88 96 135
89 90 166
90 27 174
91 2 188
92 10 189
93 92 116
94 84 193
95 72 131
96 81 196
97 47 197
98 30 148
99 62 169
100 50 110
