hr_data/kroB200 heuristic results iteration 39:
1 48 103
2 85 143
3 37 192
4 19 159
5 79 152
6 29 104
7 74 102
8 68 182
9 25 139
10 99 105
11 55 158
12 61 184
13 4 117
14 66 124
15 39 119
16 38 108
17 69 109
18 52 125
19 72 186
20 84 154
21 92 191
22 10 118
23 2 136
24 27 150
25 90 199
26 96 101
27 98 147
28 7 129
29 28 134
30 31 161
31 58 170
32 75 142
33 97 176
34 11 153
35 70 190
36 26 162
37 60 115
38 34 195
39 93 185
40 56 164
41 33 113
42 6 167
43 83 132
44 57 144
45 51 198
46 53 130
47 42 177
48 88 179
49 86 175
50 59 171
51 73 156
52 65 106
53 3 173
54 82 160
55 5 145
56 14 151
57 32 107
58 63 165
59 13 137
60 41 133
61 1 180
62 12 149
63 77 100
64 16 126
65 44 123
66 35 187
67 95 178
68 91 112
69 18 140
70 43 183
71 40 114
72 17 172
73 23 138
74 76 163
75 15 181
76 49 146
77 54 120
78 21 155
79 22 194
80 87 127
81 36 111
82 71 168
83 64 122
84 78 141
85 80 121
86 46 157
87 45 128
88 24 135
89 8 166
90 89 174
91 0 188
92 94 189
93 20 116
94 9 193
95 67 131
96 81 196
97 47 197
98 30 148
99 62 169
100 50 110
