hr_data/kroB200 heuristic results iteration 59:
1 92 115
2 10 162
3 2 153
4 27 190
5 90 176
6 96 142
7 98 170
8 7 103
9 28 143
10 31 192
11 58 159
12 75 152
13 97 104
14 11 102
15 70 182
16 26 139
17 60 105
18 34 158
19 93 184
20 56 117
21 33 124
22 6 119
23 83 108
24 57 109
25 51 125
26 53 186
27 42 154
28 88 191
29 86 118
30 59 136
31 73 150
32 65 199
33 3 101
34 82 147
35 5 129
36 14 134
37 32 161
38 63 163
39 13 195
40 41 185
41 1 164
42 12 113
43 77 167
44 16 132
45 44 144
46 35 198
47 95 130
48 91 177
49 18 179
50 43 175
51 40 171
52 17 156
53 23 106
54 76 173
55 15 160
56 49 145
57 54 151
58 21 107
59 22 165
60 87 137
61 36 133
62 71 180
63 64 149
64 78 100
65 80 126
66 46 123
67 55 187
68 99 178
69 25 112
70 68 140
71 61 183
72 4 114
73 66 172
74 39 138
75 38 168
76 69 122
77 52 141
78 72 121
79 84 157
80 9 128
81 67 135
82 85 166
83 48 174
84 29 188
85 74 189
86 79 116
87 19 193
88 37 131
89 45 196
90 24 197
91 8 148
92 89 169
93 0 110
94 94 181
95 20 146
96 81 120
97 47 155
98 30 194
99 62 127
100 50 111
