hr_data/kroB200 heuristic results iteration 94:
1 46 103
2 78 143
3 80 192
4 64 159
5 36 152
6 71 104
7 19 102
8 79 182
9 37 139
10 85 105
11 48 158
12 29 184
13 74 117
14 68 124
15 25 119
16 99 108
17 55 109
18 61 125
19 4 186
20 66 154
21 39 191
22 38 118
23 69 136
24 52 150
25 72 199
26 84 101
27 92 147
28 10 129
29 2 134
30 27 161
31 90 170
32 96 142
33 98 176
34 7 153
35 28 190
36 31 162
37 58 115
38 75 195
39 97 185
40 11 164
41 70 113
42 26 167
43 60 132
44 34 144
45 93 198
46 56 130
47 33 177
48 6 179
49 83 175
50 57 171
51 51 156
52 53 106
53 42 173
54 88 160
55 86 145
56 59 151
57 73 107
58 65 165
59 3 137
60 82 133
61 5 180
62 14 149
63 32 100
64 63 126
65 13 123
66 41 187
67 1 178
68 12 112
69 77 140
70 16 183
71 44 114
72 35 172
73 95 138
74 91 163
75 18 181
76 43 146
77 40 120
78 17 155
79 23 194
80 76 127
81 15 111
82 49 168
83 54 122
84 21 141
85 22 121
86 87 157
87 24 128
88 8 135
89 45 166
90 89 174
91 0 188
92 94 189
93 20 116
94 9 193
95 67 131
96 81 196
97 47 197
98 30 148
99 62 169
100 50 110
