hr_data/kroB200 heuristic results iteration 58:
1 48 145
2 85 151
3 37 107
4 19 165
5 79 137
6 29 133
7 74 180
8 68 149
9 25 100
10 99 126
11 55 123
12 61 187
13 4 178
14 66 112
15 39 140
16 38 183
17 69 114
18 52 162
19 72 153
20 84 190
21 92 176
22 10 142
23 2 170
24 27 103
25 90 143
26 96 192
27 98 159
28 7 152
29 28 104
30 31 102
31 58 182
32 75 139
33 97 105
34 11 158
35 70 184
36 26 117
37 60 124
38 34 119
39 93 108
40 56 109
41 33 125
42 6 186
43 83 154
44 57 191
45 51 118
46 53 136
47 42 150
48 88 199
49 86 101
50 59 147
51 73 129
52 65 134
53 3 161
54 82 163
55 5 115
56 14 195
57 32 185
58 63 164
59 13 113
60 41 167
61 1 132
62 12 144
63 77 198
64 16 130
65 44 177
66 35 179
67 95 175
68 91 171
69 18 156
70 43 106
71 40 173
72 17 160
73 23 166
74 76 174
75 15 135
76 49 128
77 54 157
78 21 121
79 22 141
80 87 122
81 36 110
82 71 189
83 64 116
84 78 193
85 80 131
86 46 196
87 45 197
88 24 148
89 8 169
90 89 188
91 0 168
92 94 172
93 20 138
94 9 181
95 67 146
96 81 120
97 47 155
98 30 194
99 62 127
100 50 111
