hr_data/kroB200 heuristic results iteration 92:
1 49 100
2 42 149
3 88 133
4 86 180
5 59 137
6 73 165
7 65 107
8 3 151
9 82 145
10 5 160
11 14 173
12 32 106
13 63 174
14 13 166
15 41 135
16 1 128
17 12 157
18 77 121
19 16 141
20 44 122
21 35 110
22 95 189
23 91 116
24 18 193
25 43 131
26 40 196
27 17 197
28 23 148
29 76 169
30 15 188
31 81 126
32 47 123
33 30 187
34 62 178
35 50 112
36 54 140
37 21 183
38 22 114
39 87 162
40 53 153
41 51 190
42 57 176
43 83 142
44 6 170
45 56 103
46 93 143
47 60 192
48 34 159
49 26 152
50 70 104
51 11 102
52 97 182
53 94 139
54 0 105
55 89 158
56 20 184
57 85 117
58 48 124
59 29 119
60 74 108
61 79 109
62 19 125
63 37 186
64 45 154
65 24 191
66 8 118
67 33 136
68 71 150
69 36 199
70 64 101
71 78 147
72 80 129
73 46 134
74 55 161
75 99 163
76 25 115
77 68 195
78 61 185
79 4 164
80 66 113
81 39 167
82 38 132
83 69 144
84 52 198
85 72 130
86 84 177
87 92 179
88 10 175
89 2 171
90 27 156
91 90 168
92 96 172
93 98 138
94 7 181
95 28 146
96 31 120
97 58 155
98 75 194
99 9 127
100 67 111
