hr_data/kroB200 heuristic results iteration 97:
1 61 147
2 25 101
3 99 199
4 55 150
5 68 136
6 74 118
7 29 161
8 79 134
9 19 129
10 37 191
11 85 154
12 48 125
13 67 186
14 9 108
15 20 109
16 89 119
17 0 124
18 94 117
19 97 184
20 11 158
21 70 139
22 26 182
23 60 105
24 34 102
25 93 104
26 56 152
27 33 159
28 6 143
29 83 103
30 57 192
31 51 170
32 53 142
33 42 176
34 88 153
35 86 190
36 59 162
37 73 115
38 65 195
39 3 185
40 82 164
41 5 113
42 14 167
43 32 132
44 63 144
45 13 198
46 41 130
47 1 177
48 12 179
49 77 175
50 16 171
51 44 156
52 35 106
53 95 173
54 91 160
55 18 145
56 43 151
57 40 107
58 17 165
59 23 137
60 76 133
61 15 180
62 49 149
63 54 100
64 21 126
65 22 123
66 87 187
67 36 178
68 71 112
69 64 140
70 78 183
71 80 114
72 46 172
73 45 138
74 24 163
75 8 181
76 31 146
77 58 120
78 75 155
79 98 194
80 7 127
81 28 111
82 96 168
83 90 122
84 27 141
85 2 121
86 10 157
87 92 128
88 84 135
89 72 166
90 52 174
91 69 188
92 38 189
93 39 116
94 66 193
95 4 131
96 81 196
97 47 197
98 30 148
99 62 169
100 50 110
