hr_data/kroB200 heuristic results iteration 20:
1 28 115
2 7 162
3 98 153
4 75 190
5 58 176
6 31 142
7 97 170
8 11 103
9 70 143
10 26 192
11 60 159
12 34 152
13 93 104
14 56 102
15 33 182
16 6 139
17 83 105
18 57 158
19 51 184
20 53 117
21 42 124
22 88 119
23 86 108
24 59 109
25 73 125
26 65 186
27 3 154
28 82 191
29 5 118
30 14 136
31 32 150
32 63 199
33 13 101
34 41 147
35 1 129
36 12 134
37 77 161
38 16 163
39 44 195
40 35 185
41 95 164
42 91 113
43 18 167
44 43 132
45 40 144
46 17 198
47 23 130
48 76 177
49 15 179
50 49 175
51 54 171
52 21 156
53 22 106
54 87 173
55 36 160
56 71 145
57 64 151
58 78 107
59 80 165
60 46 137
61 55 133
62 99 180
63 25 149
64 68 100
65 61 126
66 4 123
67 66 187
68 39 178
69 38 112
70 69 140
71 52 183
72 72 114
73 84 172
74 92 138
75 10 168
76 2 122
77 27 141
78 90 121
79 96 157
80 94 128
81 0 135
82 89 166
83 20 174
84 85 188
85 48 189
86 29 116
87 74 193
88 79 131
89 19 196
90 37 197
91 45 148
92 24 169
93 8 110
94 67 181
95 9 146
96 81 120
97 47 155
98 30 194
99 62 127
100 50 111
