hr_data/kroB200 heuristic results iteration 89:
1 11 130
2 97 198
3 94 177
4 0 179
5 89 175
6 20 171
7 85 156
8 48 144
9 29 132
10 74 167
11 79 113
12 19 164
13 37 185
14 45 195
15 24 115
16 8 162
17 26 153
18 60 190
19 34 176
20 93 142
21 56 170
22 33 103
23 6 143
24 83 192
25 57 159
26 51 152
27 53 104
28 42 102
29 88 182
30 86 139
31 59 105
32 73 158
33 65 184
34 3 117
35 82 124
36 5 119
37 14 108
38 32 109
39 63 125
40 13 186
41 41 154
42 1 191
43 12 118
44 77 136
45 16 150
46 44 199
47 35 101
48 95 147
49 91 129
50 18 134
51 43 161
52 40 163
53 17 138
54 23 172
55 76 114
56 15 183
57 49 140
58 54 123
59 21 126
60 22 187
61 87 178
62 36 112
63 71 100
64 64 149
65 78 133
66 80 180
67 46 137
68 55 165
69 99 107
70 25 151
71 68 145
72 61 160
73 4 173
74 66 106
75 39 174
76 38 166
77 69 135
78 52 128
79 72 157
80 84 121
81 92 141
82 10 122
83 2 110
84 27 189
85 90 116
86 96 193
87 98 131
88 7 196
89 28 197
90 31 148
91 58 169
92 75 188
93 70 168
94 9 181
95 67 146
96 81 120
97 47 155
98 30 194
99 62 127
100 50 111
