hr_data/kroB200 heuristic results iteration 96:
1 8 125
2 24 186
3 45 154
4 26 108
5 60 109
6 34 119
7 93 124
8 56 117
9 33 184
10 6 158
11 83 139
12 57 182
13 51 105
14 53 102
15 42 104
16 88 152
17 86 159
18 59 143
19 73 103
20 65 192
21 3 170
22 82 142
23 5 176
24 14 153
25 32 190
26 63 162
27 13 115
28 41 195
29 1 185
30 12 164
31 77 113
32 16 167
33 44 132
34 35 144
35 95 198
36 91 130
37 18 177
38 43 179
39 40 175
40 17 171
41 23 156
42 76 106
43 15 173
44 49 160
45 54 145
46 21 151
47 22 107
48 87 165
49 36 137
50 71 133
51 64 180
52 78 149
53 80 100
54 46 126
55 55 123
56 99 187
57 25 178
58 68 112
59 61 140
60 4 183
61 66 114
62 39 172
63 38 138
64 69 163
65 52 181
66 72 146
67 84 120
68 92 155
69 10 194
70 2 127
71 27 111
72 90 191
73 96 118
74 98 136
75 7 150
76 28 199
77 31 101
78 58 147
79 75 129
80 97 134
81 11 161
82 70 168
83 0 122
84 94 141
85 89 121
86 20 157
87 85 128
88 48 135
89 29 166
90 74 174
91 79 188
92 19 189
93 37 116
94 67 193
95 9 131
96 81 196
97 47 197
98 30 148
99 62 169
100 50 110
