hr_data/kroB200 heuristic results iteration 78:
1 70 178
2 11 112
3 97 187
4 94 123
5 0 126
6 89 140
7 20 183
8 85 114
9 48 162
10 29 153
11 74 190
12 79 176
13 19 142
14 37 170
15 45 103
16 24 143
17 8 192
18 26 159
19 60 152
20 34 104
21 93 102
22 56 182
23 33 139
24 6 105
25 83 158
26 57 184
27 51 117
28 53 124
29 42 119
30 88 108
31 86 109
32 59 125
33 73 186
34 65 154
35 3 191
36 82 118
37 5 136
38 14 150
39 32 199
40 63 101
41 13 147
42 41 129
43 1 134
44 12 161
45 77 163
46 16 115
47 44 195
48 35 185
49 95 164
50 91 113
51 18 167
52 43 132
53 40 144
54 17 198
55 23 130
56 76 177
57 15 179
58 49 175
59 54 171
60 21 156
61 22 106
62 87 173
63 36 160
64 71 145
65 64 151
66 78 107
67 80 165
68 46 137
69 55 133
70 99 180
71 25 149
72 68 100
73 61 193
74 4 131
75 66 196
76 39 116
77 38 189
78 69 188
79 52 110
80 72 169
81 84 148
82 92 197
83 10 121
84 2 141
85 27 122
86 90 157
87 96 128
88 98 135
89 7 166
90 28 174
91 31 168
92 58 172
93 75 138
94 9 181
95 67 146
96 81 120
97 47 155
98 30 194
99 62 127
100 50 111
