hr_data/kroB200 heuristic results iteration 1:
1 98 177
2 7 130
3 28 198
4 31 144
5 58 132
6 75 167
7 96 113
8 90 164
9 27 185
10 2 195
11 10 115
12 92 162
13 84 153
14 72 190
15 52 176
16 69 142
17 38 170
18 39 103
19 66 143
20 4 192
21 61 159
22 25 152
23 99 104
24 55 102
25 68 182
26 74 139
27 29 105
28 79 158
29 19 184
30 37 117
31 85 124
32 48 119
33 67 108
34 9 109
35 20 125
36 89 186
37 0 154
38 94 191
39 97 118
40 11 136
41 70 150
42 26 199
43 60 101
44 34 147
45 93 129
46 56 134
47 33 161
48 6 163
49 83 138
50 57 172
51 51 114
52 53 183
53 42 140
54 88 123
55 86 126
56 59 187
57 73 178
58 65 112
59 3 100
60 82 149
61 5 133
62 14 180
63 32 137
64 63 165
65 13 107
66 41 151
67 1 145
68 12 160
69 77 173
70 16 106
71 44 174
72 35 166
73 95 135
74 91 128
75 18 157
76 43 121
77 40 141
78 17 122
79 23 110
80 76 189
81 15 116
82 49 193
83 54 131
84 21 196
85 22 197
86 87 148
87 36 169
88 71 188
89 64 168
90 78 179
91 80 175
92 46 171
93 45 156
94 24 181
95 8 146
96 81 120
97 47 155
98 30 194
99 62 127
100 50 111
