hr_data/kroB200 heuristic results iteration 48:
1 53 140
2 51 183
3 57 123
4 83 126
5 6 187
6 56 178
7 93 112
8 60 100
9 34 149
10 26 133
11 70 180
12 11 137
13 97 165
14 94 107
15 0 151
16 89 145
17 20 160
18 85 173
19 48 106
20 29 174
21 74 166
22 79 135
23 19 128
24 37 157
25 45 121
26 24 141
27 8 122
28 33 110
29 71 189
30 36 116
31 64 193
32 78 131
33 80 196
34 46 197
35 55 148
36 99 169
37 25 188
38 68 168
39 61 114
40 4 162
41 66 153
42 39 190
43 38 176
44 69 142
45 52 170
46 72 103
47 84 143
48 92 192
49 10 159
50 2 152
51 27 104
52 90 102
53 96 182
54 98 139
55 7 105
56 28 158
57 31 184
58 58 117
59 75 124
60 9 119
61 67 108
62 73 109
63 59 125
64 86 186
65 88 154
66 42 191
67 49 118
68 54 136
69 21 150
70 22 199
71 87 101
72 23 147
73 17 129
74 76 134
75 15 161
76 1 163
77 12 115
78 77 195
79 16 185
80 44 164
81 35 113
82 95 167
83 91 132
84 18 144
85 43 198
86 40 130
87 62 177
88 30 179
89 47 175
90 81 171
91 63 156
92 13 181
93 41 146
94 32 120
95 14 155
96 5 194
97 3 127
98 82 111
99 65 138
100 50 172
