hr_data/kroB200 heuristic results iteration 85:
1 31 116
2 58 189
3 75 188
4 98 110
5 7 193
6 28 131
7 96 196
8 90 197
9 27 148
10 2 169
11 10 121
12 92 141
13 84 122
14 72 165
15 52 107
16 69 151
17 38 137
18 39 133
19 66 180
20 4 149
21 61 100
22 25 126
23 99 123
24 55 187
25 68 178
26 74 112
27 29 140
28 79 183
29 19 114
30 37 162
31 85 153
32 48 190
33 67 176
34 9 142
35 20 170
36 89 103
37 0 143
38 94 192
39 97 159
40 11 152
41 70 104
42 26 102
43 60 182
44 34 139
45 93 105
46 56 158
47 33 184
48 6 117
49 83 124
50 57 119
51 51 108
52 53 109
53 42 125
54 88 186
55 86 154
56 59 191
57 73 118
58 65 136
59 3 150
60 82 199
61 5 101
62 14 147
63 32 129
64 63 134
65 13 161
66 41 163
67 1 115
68 12 195
69 77 185
70 16 164
71 44 113
72 35 167
73 95 132
74 91 144
75 18 198
76 43 130
77 40 177
78 17 179
79 23 175
80 76 171
81 15 156
82 49 106
83 54 173
84 21 160
85 22 145
86 87 168
87 36 172
88 71 138
89 64 181
90 78 146
91 80 120
92 46 155
93 45 194
94 24 127
95 8 111
96 81 174
97 47 166
98 30 135
99 62 128
100 50 157
