hr_data/kroB200 heuristic results iteration 14:
1 45 132
2 24 167
3 8 113
4 26 164
5 60 185
6 34 195
7 93 115
8 56 162
9 33 153
10 6 190
11 83 176
12 57 142
13 51 170
14 53 103
15 42 143
16 88 192
17 86 159
18 59 152
19 73 104
20 65 102
21 3 182
22 82 139
23 5 105
24 14 158
25 32 184
26 63 117
27 13 124
28 41 119
29 1 108
30 12 109
31 77 125
32 16 186
33 44 154
34 35 191
35 95 118
36 91 136
37 18 150
38 43 199
39 40 101
40 17 147
41 23 129
42 76 134
43 15 161
44 49 163
45 54 138
46 21 172
47 22 114
48 87 183
49 36 140
50 71 123
51 64 126
52 78 187
53 80 178
54 46 112
55 55 100
56 99 149
57 25 133
58 68 180
59 61 137
60 4 165
61 66 107
62 39 151
63 38 145
64 69 160
65 52 173
66 72 106
67 84 174
68 92 166
69 10 135
70 2 128
71 27 157
72 90 121
73 96 141
74 98 122
75 7 110
76 28 189
77 31 116
78 58 193
79 75 131
80 97 196
81 11 197
82 70 148
83 0 169
84 94 188
85 89 168
86 20 179
87 85 175
88 48 177
89 29 130
90 74 198
91 79 144
92 19 156
93 37 171
94 67 181
95 9 146
96 81 120
97 47 155
98 30 194
99 62 127
100 50 111
