hr_data/kroB200 heuristic results iteration 100:
1 70 167
2 11 113
3 97 132
4 94 144
5 0 198
6 89 130
7 20 177
8 85 179
9 48 175
10 29 171
11 74 156
12 79 164
13 19 185
14 37 195
15 45 115
16 24 162
17 8 153
18 26 190
19 60 176
20 34 142
21 93 170
22 56 103
23 33 143
24 6 192
25 83 159
26 57 152
27 51 104
28 53 102
29 42 182
30 88 139
31 86 105
32 59 158
33 73 184
34 65 117
35 3 124
36 82 119
37 5 108
38 14 109
39 32 125
40 63 186
41 13 154
42 41 191
43 1 118
44 12 136
45 77 150
46 16 199
47 44 101
48 35 147
49 95 129
50 91 134
51 18 161
52 43 163
53 40 138
54 17 172
55 23 114
56 76 183
57 15 140
58 49 123
59 54 126
60 21 187
61 22 178
62 87 112
63 36 100
64 71 149
65 64 133
66 78 180
67 80 137
68 46 165
69 55 107
70 99 151
71 25 145
72 68 160
73 61 173
74 4 106
75 66 174
76 39 166
77 38 135
78 69 128
79 52 157
80 72 121
81 84 141
82 92 122
83 10 110
84 2 189
85 27 116
86 90 193
87 96 131
88 98 196
89 7 197
90 28 148
91 31 169
92 58 188
93 75 168
94 9 181
95 67 146
96 81 120
97 47 155
98 30 194
99 62 127
100 50 111
