hr_data/kroB200 heuristic results iteration 71:
1 86 197
2 59 148
3 73 169
4 65 188
5 3 189
6 82 116
7 5 193
8 14 131
9 32 196
10 63 110
11 13 137
12 41 165
13 1 107
14 12 151
15 77 145
16 16 160
17 44 173
18 35 106
19 95 174
20 91 166
21 18 135
22 43 128
23 40 157
24 17 121
25 23 141
26 76 122
27 15 133
28 49 180
29 42 149
30 88 100
31 51 126
32 53 123
33 57 187
34 83 178
35 6 112
36 56 140
37 93 183
38 60 114
39 34 162
40 26 153
41 70 190
42 11 176
43 97 142
44 94 170
45 0 103
46 89 143
47 20 192
48 85 159
49 48 152
50 29 104
51 74 102
52 79 182
53 19 139
54 37 105
55 45 158
56 24 184
57 8 117
58 33 124
59 71 119
60 36 108
61 64 109
62 78 125
63 80 186
64 46 154
65 55 191
66 99 118
67 25 136
68 68 150
69 61 199
70 4 101
71 66 147
72 39 129
73 38 134
74 69 161
75 52 163
76 72 115
77 84 195
78 92 185
79 10 164
80 2 113
81 27 167
82 90 132
83 96 144
84 98 198
85 7 130
86 28 177
87 31 179
88 58 175
89 75 171
90 9 156
91 67 168
92 87 172
93 21 138
94 22 181
95 54 146
96 81 120
97 47 155
98 30 194
99 62 127
100 50 111
