kroA200 heuristic results iteration 15:
1 20 121
2 22 115
3 34 187
4 1 193
5 67 169
6 29 152
7 88 178
8 40 117
9 58 123
10 2 137
11 72 135
12 68 198
13 73 183
14 56 109
15 35 171
16 99 120
17 32 173
18 44 158
19 80 116
20 96 114
21 9 110
22 91 131
23 98 190
24 18 197
25 13 122
26 3 144
27 59 146
28 92 162
29 48 105
30 17 148
31 28 189
32 36 118
33 60 174
34 25 196
35 77 155
36 8 179
37 81 130
38 6 188
39 31 141
40 23 107
41 45 191
42 11 100
43 39 192
44 26 127
45 14 166
46 12 157
47 78 160
48 63 124
49 19 180
50 54 168
51 41 172
52 66 149
53 30 143
54 46 101
55 5 153
56 53 139
57 74 163
58 21 167
59 7 184
60 16 138
61 24 129
62 89 195
63 33 177
64 57 151
65 97 104
66 87 136
67 27 132
68 38 175
69 37 112
70 70 194
71 55 181
72 4 147
73 42 199
74 85 170
75 49 140
76 71 113
77 82 102
78 61 145
79 94 128
80 93 133
81 90 182
82 69 154
83 75 111
84 76 126
85 79 185
86 64 134
87 84 119
88 0 156
89 52 106
90 15 108
91 62 186
92 43 150
93 65 176
94 47 159
95 83 161
96 10 142
97 51 103
98 95 164
99 86 165
100 50 125
