kroA200 heuristic results iteration 21:
1 23 119
2 31 111
3 60 126
4 25 185
5 77 134
6 8 161
7 81 159
8 6 176
9 36 122
10 28 197
11 17 190
12 48 144
13 92 131
14 3 110
15 59 114
16 13 116
17 35 173
18 56 120
19 73 158
20 99 171
21 32 109
22 44 183
23 80 135
24 96 137
25 9 123
26 91 117
27 98 178
28 18 152
29 65 187
30 43 115
31 62 121
32 15 193
33 50 169
34 47 165
35 83 164
36 10 103
37 51 196
38 95 155
39 86 179
40 68 130
41 2 188
42 72 141
43 58 107
44 40 191
45 88 100
46 20 162
47 22 105
48 34 148
49 1 189
50 67 118
51 29 174
52 76 125
53 79 198
54 64 146
55 30 192
56 46 127
57 66 166
58 54 157
59 41 160
60 63 124
61 19 180
62 78 168
63 12 172
64 14 149
65 26 143
66 84 101
67 0 153
68 52 139
69 39 163
70 11 167
71 45 184
72 5 138
73 53 129
74 74 195
75 21 177
76 7 151
77 16 104
78 24 136
79 89 132
80 33 175
81 57 112
82 97 194
83 87 181
84 27 147
85 38 199
86 37 170
87 70 140
88 55 113
89 4 102
90 42 145
91 85 128
92 49 133
93 71 182
94 82 154
95 61 106
96 94 108
97 93 156
98 90 186
99 69 150
100 75 142
