kroA200 heuristic results iteration 90:
1 69 131
2 75 110
3 90 114
4 93 116
5 94 173
6 49 120
7 71 158
8 82 171
9 61 109
10 53 183
11 5 135
12 74 137
13 21 123
14 7 117
15 16 178
16 24 152
17 89 187
18 33 115
19 57 121
20 97 193
21 87 169
22 27 165
23 38 164
24 37 103
25 70 196
26 55 155
27 4 179
28 42 130
29 85 188
30 22 141
31 34 107
32 1 191
33 67 100
34 29 162
35 88 105
36 40 148
37 58 189
38 2 118
39 72 174
40 68 125
41 73 198
42 56 146
43 35 190
44 99 197
45 32 122
46 44 144
47 80 159
48 96 161
49 9 176
50 91 119
51 98 111
52 18 126
53 13 185
54 3 134
55 59 156
56 92 106
57 48 108
58 17 186
59 28 150
60 36 160
61 60 124
62 25 180
63 77 168
64 8 172
65 81 149
66 6 143
67 31 101
68 23 153
69 45 139
70 11 163
71 39 167
72 26 184
73 14 138
74 12 129
75 78 195
76 63 177
77 19 151
78 54 104
79 41 136
80 66 132
81 30 175
82 46 112
83 64 194
84 79 181
85 76 147
86 20 199
87 84 170
88 0 140
89 52 113
90 15 102
91 62 145
92 43 128
93 65 133
94 47 182
95 83 154
96 10 142
97 51 157
98 95 127
99 86 192
100 50 166
