kroA200 heuristic results iteration 44:
1 39 173
2 11 120
3 45 158
4 28 171
5 17 109
6 48 183
7 92 135
8 3 137
9 59 123
10 13 117
11 35 178
12 56 152
13 73 187
14 99 115
15 32 121
16 44 193
17 80 169
18 96 165
19 9 164
20 91 103
21 98 196
22 18 155
23 65 179
24 43 130
25 62 188
26 15 141
27 50 107
28 36 191
29 60 100
30 25 162
31 77 105
32 8 148
33 81 189
34 6 118
35 31 174
36 23 125
37 52 198
38 0 116
39 84 114
40 26 110
41 14 131
42 12 190
43 78 197
44 63 122
45 19 144
46 54 146
47 41 192
48 66 127
49 30 166
50 46 157
51 5 160
52 53 124
53 74 180
54 21 168
55 7 172
56 16 149
57 24 143
58 89 101
59 33 153
60 57 139
61 97 163
62 87 167
63 27 184
64 38 138
65 37 129
66 70 195
67 55 177
68 4 151
69 42 104
70 85 136
71 49 132
72 71 175
73 82 112
74 61 194
75 1 181
76 34 147
77 67 199
78 29 170
79 88 140
80 40 113
81 58 102
82 2 145
83 72 128
84 68 133
85 76 182
86 79 154
87 64 111
88 22 126
89 69 185
90 75 134
91 90 119
92 93 156
93 94 106
94 20 108
95 95 186
96 86 150
97 51 176
98 10 159
99 83 161
100 47 142
