kroA200 heuristic results iteration 32:
1 33 137
2 89 123
3 24 117
4 16 178
5 7 152
6 21 187
7 74 115
8 53 121
9 5 193
10 46 169
11 30 165
12 66 164
13 54 103
14 41 196
15 63 155
16 19 179
17 78 130
18 12 188
19 14 141
20 26 107
21 84 191
22 0 100
23 52 162
24 39 105
25 11 148
26 45 189
27 28 109
28 17 183
29 48 171
30 92 120
31 3 173
32 59 158
33 13 116
34 35 114
35 56 110
36 73 131
37 99 190
38 32 197
39 44 122
40 80 144
41 96 146
42 9 192
43 91 127
44 98 166
45 18 157
46 65 160
47 43 124
48 62 180
49 15 168
50 50 172
51 36 149
52 60 143
53 25 101
54 77 153
55 8 139
56 81 163
57 6 167
58 31 184
59 23 138
60 47 129
61 83 195
62 10 177
63 51 151
64 95 104
65 86 136
66 68 132
67 2 175
68 72 112
69 58 194
70 40 181
71 88 147
72 20 199
73 22 170
74 34 140
75 1 113
76 67 102
77 29 145
78 76 128
79 79 133
80 64 182
81 61 154
82 82 111
83 71 126
84 70 185
85 37 134
86 27 119
87 38 156
88 87 106
89 97 108
90 57 186
91 55 150
92 4 176
93 42 159
94 85 161
95 49 142
96 94 174
97 93 118
98 90 125
99 69 135
100 75 198
