kroA200 heuristic results iteration 5:
1 69 103
2 75 164
3 90 165
4 93 125
5 94 169
6 49 121
7 71 115
8 82 187
9 61 193
10 53 117
11 5 123
12 74 137
13 21 135
14 7 198
15 16 183
16 24 109
17 89 171
18 33 120
19 57 173
20 97 158
21 87 116
22 27 114
23 38 110
24 37 131
25 70 190
26 55 197
27 4 122
28 42 144
29 85 146
30 22 162
31 34 105
32 1 148
33 67 189
34 29 178
35 88 152
36 40 118
37 58 174
38 2 196
39 72 155
40 68 179
41 73 130
42 56 188
43 35 141
44 99 107
45 32 191
46 44 100
47 80 192
48 96 127
49 9 166
50 91 157
51 98 160
52 18 124
53 13 180
54 3 168
55 59 172
56 92 149
57 48 143
58 17 101
59 28 153
60 36 139
61 60 163
62 25 167
63 77 184
64 8 138
65 81 129
66 6 195
67 31 177
68 23 151
69 45 104
70 11 136
71 39 132
72 26 175
73 14 112
74 12 194
75 78 181
76 63 147
77 19 199
78 54 170
79 41 140
80 66 113
81 30 102
82 46 145
83 64 128
84 79 133
85 76 182
86 20 154
87 84 111
88 0 126
89 52 185
90 15 134
91 62 119
92 43 156
93 65 106
94 47 108
95 83 186
96 10 150
97 51 176
98 95 159
99 86 161
100 50 142
