kroA200 heuristic results iteration 23:
1 60 123
2 25 137
3 77 135
4 8 198
5 81 117
6 6 178
7 31 152
8 23 187
9 45 115
10 28 121
11 17 193
12 48 169
13 92 165
14 3 164
15 59 103
16 13 196
17 35 155
18 56 179
19 73 130
20 99 188
21 32 141
22 44 107
23 80 191
24 96 100
25 9 162
26 91 105
27 98 148
28 18 189
29 65 109
30 43 183
31 62 171
32 15 120
33 50 173
34 36 158
35 11 116
36 39 114
37 26 110
38 14 131
39 12 190
40 78 197
41 63 122
42 19 144
43 54 146
44 41 192
45 66 127
46 30 166
47 46 157
48 5 160
49 53 124
50 74 180
51 21 168
52 7 172
53 16 149
54 24 143
55 89 101
56 33 153
57 57 139
58 97 163
59 87 167
60 27 184
61 38 138
62 37 129
63 70 195
64 55 177
65 4 151
66 42 104
67 85 136
68 49 132
69 71 175
70 82 112
71 61 194
72 1 181
73 34 147
74 67 199
75 29 170
76 88 140
77 40 113
78 58 102
79 2 145
80 72 128
81 68 133
82 76 182
83 79 154
84 64 111
85 84 126
86 0 185
87 52 134
88 47 119
89 83 156
90 10 106
91 51 108
92 95 186
93 86 150
94 20 176
95 22 159
96 69 161
97 75 142
98 90 174
99 93 118
100 94 125
