kroA200 heuristic results iteration 54:
1 67 106
2 29 108
3 34 156
4 1 186
5 22 150
6 69 160
7 75 124
8 90 180
9 93 168
10 94 172
11 49 149
12 71 143
13 82 101
14 61 153
15 53 139
16 5 163
17 74 167
18 21 184
19 7 138
20 16 129
21 24 195
22 89 177
23 33 151
24 57 104
25 97 136
26 87 132
27 27 175
28 38 112
29 37 194
30 70 181
31 55 147
32 4 199
33 42 170
34 85 140
35 20 113
36 88 102
37 40 145
38 58 128
39 2 133
40 72 182
41 68 154
42 73 111
43 56 126
44 35 185
45 99 134
46 32 119
47 44 161
48 80 159
49 96 176
50 9 122
51 91 197
52 98 190
53 18 144
54 13 131
55 3 110
56 59 114
57 92 116
58 48 173
59 17 120
60 28 158
61 36 171
62 60 109
63 25 183
64 77 135
65 8 137
66 81 123
67 6 117
68 31 178
69 23 152
70 45 187
71 11 115
72 39 121
73 26 193
74 14 169
75 12 165
76 78 164
77 63 103
78 19 196
79 54 155
80 41 179
81 66 130
82 30 188
83 46 141
84 64 107
85 79 191
86 76 100
87 84 162
88 0 105
89 52 148
90 15 189
91 62 118
92 43 174
93 65 125
94 47 198
95 83 146
96 10 192
97 51 127
98 95 166
99 86 157
100 50 142
