kroA200 heuristic results iteration 76:
1 85 173
2 4 120
3 42 158
4 55 171
5 37 109
6 70 183
7 38 135
8 27 137
9 87 123
10 97 117
11 57 178
12 33 152
13 89 187
14 24 115
15 16 121
16 7 193
17 21 169
18 74 165
19 53 164
20 5 103
21 46 196
22 30 155
23 66 179
24 54 130
25 41 188
26 63 141
27 19 107
28 78 191
29 12 100
30 14 162
31 26 105
32 84 148
33 0 189
34 52 118
35 39 174
36 11 125
37 45 198
38 28 116
39 17 114
40 48 110
41 92 131
42 3 190
43 59 197
44 13 122
45 35 144
46 56 146
47 73 192
48 99 127
49 32 166
50 44 157
51 80 160
52 96 124
53 9 180
54 91 168
55 98 172
56 18 149
57 65 143
58 43 101
59 62 153
60 15 139
61 50 163
62 36 167
63 60 184
64 25 138
65 77 129
66 8 195
67 81 177
68 6 151
69 31 104
70 23 136
71 47 132
72 83 175
73 10 112
74 51 194
75 95 181
76 86 147
77 68 199
78 2 170
79 72 140
80 58 113
81 40 102
82 88 145
83 20 128
84 22 133
85 34 182
86 1 154
87 67 111
88 29 126
89 76 185
90 79 134
91 64 119
92 61 156
93 82 106
94 71 108
95 49 186
96 94 150
97 93 176
98 90 159
99 69 161
100 75 142
