kroA200 heuristic results iteration 8:
1 12 131
2 78 110
3 14 114
4 26 116
5 84 173
6 0 120
7 52 158
8 39 171
9 11 109
10 45 183
11 28 135
12 17 137
13 48 123
14 92 117
15 3 178
16 59 152
17 13 187
18 35 115
19 56 121
20 73 193
21 99 169
22 32 165
23 44 164
24 80 103
25 96 196
26 9 155
27 91 179
28 98 130
29 18 188
30 65 141
31 43 107
32 62 191
33 15 100
34 50 162
35 36 105
36 60 148
37 25 189
38 77 118
39 8 174
40 81 125
41 6 198
42 31 146
43 23 190
44 47 197
45 83 122
46 10 144
47 51 159
48 95 161
49 86 176
50 68 119
51 2 111
52 72 126
53 58 185
54 40 134
55 88 156
56 20 106
57 22 108
58 34 186
59 1 150
60 67 160
61 29 124
62 76 180
63 79 168
64 64 172
65 30 149
66 46 143
67 66 101
68 54 153
69 41 139
70 63 163
71 19 167
72 5 184
73 53 138
74 74 129
75 21 195
76 7 177
77 16 151
78 24 104
79 89 136
80 33 132
81 57 175
82 97 112
83 87 194
84 27 181
85 38 147
86 37 199
87 70 170
88 55 140
89 4 113
90 42 102
91 85 145
92 49 128
93 71 133
94 82 182
95 61 154
96 94 142
97 93 157
98 90 127
99 69 192
100 75 166
