kroA200 heuristic results iteration 14:
1 79 109
2 76 183
3 29 171
4 67 120
5 34 173
6 1 158
7 22 116
8 69 114
9 75 110
10 90 131
11 93 190
12 94 197
13 49 122
14 71 144
15 82 146
16 61 162
17 53 105
18 5 148
19 74 189
20 21 178
21 7 152
22 16 187
23 24 115
24 89 121
25 33 193
26 57 169
27 97 165
28 87 164
29 27 103
30 38 196
31 37 155
32 70 179
33 55 130
34 4 188
35 42 141
36 85 107
37 20 191
38 88 100
39 40 192
40 58 127
41 2 166
42 72 157
43 68 160
44 73 124
45 56 180
46 35 168
47 99 172
48 32 149
49 44 143
50 80 101
51 96 153
52 9 139
53 91 163
54 98 167
55 18 184
56 13 138
57 3 129
58 59 195
59 92 177
60 48 151
61 17 104
62 28 136
63 36 132
64 60 175
65 25 112
66 77 194
67 8 181
68 81 147
69 6 199
70 31 170
71 23 140
72 45 113
73 11 102
74 39 145
75 26 128
76 14 133
77 12 182
78 78 154
79 63 111
80 19 126
81 54 185
82 41 134
83 66 119
84 30 156
85 46 106
86 64 108
87 84 186
88 0 150
89 52 176
90 15 159
91 62 161
92 43 142
93 65 174
94 47 118
95 83 117
96 10 123
97 51 137
98 95 135
99 86 198
100 50 125
