kroA200 heuristic results iteration 30:
1 14 163
2 12 139
3 78 153
4 63 101
5 19 143
6 54 149
7 41 172
8 66 167
9 30 184
10 46 138
11 5 129
12 53 195
13 74 177
14 21 151
15 7 104
16 16 136
17 24 132
18 89 175
19 33 112
20 57 194
21 97 181
22 87 168
23 27 180
24 38 124
25 37 160
26 70 150
27 55 186
28 4 108
29 42 106
30 85 156
31 49 119
32 71 111
33 82 126
34 61 185
35 1 134
36 34 161
37 67 159
38 29 176
39 88 122
40 40 197
41 58 190
42 2 144
43 72 131
44 68 110
45 73 114
46 56 116
47 35 173
48 99 120
49 32 158
50 44 171
51 80 109
52 96 183
53 9 135
54 91 137
55 98 123
56 18 117
57 13 178
58 3 152
59 59 187
60 92 115
61 48 121
62 17 193
63 28 169
64 36 165
65 60 164
66 25 103
67 77 196
68 8 155
69 81 179
70 6 130
71 31 188
72 23 141
73 45 107
74 11 191
75 39 100
76 26 162
77 84 105
78 0 148
79 52 189
80 64 118
81 79 174
82 76 125
83 22 198
84 69 146
85 75 192
86 90 127
87 93 166
88 94 157
89 20 154
90 65 182
91 43 133
92 62 128
93 15 145
94 50 102
95 47 142
96 83 113
97 10 170
98 51 140
99 95 199
100 86 147
