kroA200 heuristic results iteration 56:
1 85 165
2 4 164
3 42 103
4 55 196
5 37 155
6 70 179
7 38 130
8 27 188
9 87 141
10 97 107
11 57 191
12 33 100
13 89 162
14 24 105
15 16 148
16 7 189
17 21 109
18 74 183
19 53 171
20 5 120
21 46 173
22 30 158
23 66 116
24 54 114
25 41 110
26 63 131
27 19 190
28 78 197
29 12 122
30 14 144
31 26 146
32 84 192
33 0 127
34 52 166
35 39 157
36 11 160
37 45 124
38 28 180
39 17 168
40 48 172
41 92 149
42 3 143
43 59 101
44 13 153
45 35 139
46 56 163
47 73 167
48 99 184
49 32 138
50 44 129
51 80 195
52 96 177
53 9 151
54 91 104
55 98 136
56 18 132
57 65 175
58 43 112
59 62 194
60 15 181
61 50 147
62 36 199
63 60 170
64 25 140
65 77 113
66 8 102
67 81 145
68 6 128
69 31 133
70 23 182
71 47 154
72 83 111
73 10 126
74 51 185
75 95 134
76 86 119
77 68 156
78 2 106
79 72 108
80 58 186
81 40 150
82 88 176
83 20 159
84 22 161
85 34 142
86 1 174
87 67 118
88 29 152
89 76 178
90 79 117
91 64 123
92 61 137
93 82 135
94 71 198
95 49 193
96 94 121
97 93 115
98 90 187
99 69 169
100 75 125
