kroA200 heuristic results iteration 29:
1 46 142
2 30 102
3 66 145
4 54 128
5 41 133
6 63 182
7 19 154
8 78 111
9 12 126
10 14 185
11 26 134
12 84 119
13 0 156
14 52 106
15 39 108
16 11 186
17 45 150
18 28 160
19 17 124
20 48 180
21 92 168
22 3 172
23 59 149
24 13 143
25 35 101
26 56 153
27 73 139
28 99 163
29 32 167
30 44 184
31 80 138
32 96 129
33 9 195
34 91 177
35 98 151
36 18 104
37 65 136
38 43 132
39 62 175
40 15 112
41 50 194
42 36 181
43 60 147
44 25 199
45 77 170
46 8 140
47 81 113
48 6 161
49 31 159
50 23 176
51 47 122
52 83 197
53 10 190
54 51 144
55 95 131
56 86 110
57 68 114
58 2 116
59 72 173
60 58 120
61 40 158
62 88 171
63 20 109
64 22 183
65 34 135
66 1 137
67 67 123
68 29 117
69 76 178
70 79 152
71 64 187
72 5 115
73 53 121
74 74 193
75 21 169
76 7 165
77 16 164
78 24 103
79 89 196
80 33 155
81 57 179
82 97 130
83 87 188
84 27 141
85 38 107
86 37 191
87 70 100
88 55 162
89 4 105
90 42 148
91 85 189
92 49 118
93 71 174
94 82 125
95 61 198
96 94 146
97 93 192
98 90 127
99 69 166
100 75 157
