kroA200 heuristic results iteration 93:
1 98 110
2 18 114
3 91 116
4 9 131
5 35 190
6 56 197
7 73 122
8 99 144
9 32 146
10 44 162
11 80 105
12 96 148
13 95 189
14 86 109
15 51 183
16 10 171
17 83 120
18 47 173
19 65 158
20 43 135
21 62 137
22 15 123
23 50 117
24 36 178
25 28 152
26 17 187
27 48 115
28 92 121
29 3 193
30 59 169
31 13 165
32 68 164
33 2 103
34 72 196
35 58 155
36 40 179
37 88 130
38 20 188
39 22 141
40 34 107
41 1 191
42 67 100
43 29 192
44 76 127
45 79 166
46 64 157
47 30 160
48 46 124
49 66 180
50 54 168
51 41 172
52 63 149
53 19 143
54 78 101
55 12 153
56 14 139
57 26 163
58 84 167
59 0 184
60 52 138
61 39 129
62 11 195
63 45 177
64 23 151
65 31 104
66 60 136
67 25 132
68 77 175
69 8 112
70 81 194
71 6 181
72 5 147
73 53 199
74 74 170
75 21 140
76 7 113
77 16 102
78 24 145
79 89 128
80 33 133
81 57 182
82 97 154
83 87 111
84 27 126
85 38 185
86 37 134
87 70 119
88 55 156
89 4 106
90 42 108
91 85 186
92 49 150
93 71 176
94 82 159
95 61 161
96 94 142
97 93 174
98 90 118
99 69 125
100 75 198
