kroA200 heuristic results iteration 60:
1 60 130
2 25 179
3 77 141
4 8 188
5 81 107
6 6 191
7 31 100
8 23 162
9 45 105
10 28 148
11 17 189
12 48 109
13 92 183
14 3 171
15 59 120
16 13 173
17 35 158
18 56 116
19 73 114
20 99 110
21 32 131
22 44 190
23 80 197
24 96 122
25 9 144
26 91 146
27 98 192
28 18 127
29 65 166
30 43 157
31 62 160
32 15 124
33 50 180
34 36 168
35 11 172
36 39 149
37 26 143
38 14 101
39 12 153
40 78 139
41 63 163
42 19 167
43 54 184
44 41 138
45 66 129
46 30 195
47 46 177
48 5 151
49 53 104
50 74 136
51 21 132
52 7 175
53 16 112
54 24 194
55 89 181
56 33 147
57 57 199
58 97 170
59 87 140
60 27 113
61 38 102
62 37 145
63 70 128
64 55 133
65 4 182
66 42 154
67 85 111
68 49 126
69 71 185
70 82 134
71 61 119
72 1 156
73 34 106
74 67 108
75 29 186
76 88 150
77 40 176
78 58 159
79 2 161
80 72 142
81 68 174
82 76 118
83 79 152
84 64 178
85 84 117
86 0 123
87 52 137
88 47 135
89 83 198
90 10 193
91 51 121
92 95 115
93 86 187
94 20 169
95 22 165
96 69 164
97 75 103
98 90 196
99 93 155
100 94 125
