kroA200 heuristic results iteration 27:
1 80 151
2 44 177
3 32 195
4 99 104
5 73 136
6 56 132
7 35 175
8 13 112
9 98 194
10 18 181
11 91 149
12 9 143
13 92 172
14 48 167
15 17 184
16 28 138
17 36 129
18 60 147
19 25 199
20 77 170
21 8 140
22 81 113
23 6 102
24 31 145
25 23 128
26 45 133
27 11 182
28 39 154
29 26 111
30 14 126
31 12 185
32 78 134
33 63 119
34 19 156
35 54 106
36 41 108
37 66 186
38 30 150
39 46 160
40 5 124
41 53 180
42 74 168
43 21 163
44 7 139
45 16 153
46 24 101
47 89 166
48 33 127
49 57 192
50 97 157
51 87 176
52 27 159
53 38 161
54 37 122
55 70 197
56 55 190
57 4 144
58 42 131
59 85 110
60 49 114
61 71 116
62 82 173
63 61 120
64 1 158
65 34 171
66 67 109
67 29 183
68 88 135
69 40 137
70 58 123
71 2 117
72 72 178
73 68 152
74 59 187
75 3 115
76 84 121
77 0 193
78 52 169
79 64 165
80 79 164
81 76 103
82 22 196
83 69 155
84 75 179
85 90 130
86 93 188
87 94 141
88 20 107
89 96 191
90 95 100
91 86 162
92 51 105
93 10 148
94 83 189
95 47 118
96 65 174
97 43 125
98 62 198
99 15 146
100 50 142
