kroA200 heuristic results iteration 39:
1 10 137
2 51 123
3 83 117
4 47 178
5 65 152
6 43 187
7 62 115
8 15 121
9 50 193
10 36 169
11 28 165
12 17 164
13 48 103
14 92 196
15 3 155
16 59 179
17 13 130
18 35 188
19 56 141
20 73 107
21 99 191
22 32 100
23 44 162
24 80 105
25 96 148
26 9 189
27 91 109
28 98 183
29 18 171
30 11 120
31 39 173
32 26 158
33 14 116
34 12 114
35 78 110
36 63 131
37 19 190
38 54 197
39 41 122
40 66 144
41 30 146
42 46 192
43 5 127
44 53 166
45 74 157
46 21 160
47 7 124
48 16 180
49 24 168
50 89 172
51 33 149
52 57 143
53 97 101
54 87 153
55 27 139
56 38 163
57 37 167
58 70 184
59 55 138
60 4 129
61 42 195
62 85 177
63 49 151
64 71 104
65 82 136
66 61 132
67 1 175
68 34 112
69 67 194
70 29 181
71 88 147
72 40 199
73 58 170
74 2 140
75 72 113
76 68 102
77 76 145
78 79 128
79 64 133
80 84 182
81 0 154
82 52 111
83 45 126
84 23 185
85 31 134
86 60 119
87 25 156
88 77 106
89 8 108
90 81 186
91 6 150
92 95 176
93 86 159
94 20 161
95 22 142
96 69 174
97 75 118
98 90 125
99 93 135
100 94 198
