kroA200 heuristic results iteration 19:
1 38 142
2 27 102
3 37 145
4 70 128
5 55 133
6 4 182
7 42 154
8 85 111
9 49 126
10 71 185
11 82 134
12 61 119
13 53 156
14 5 106
15 74 108
16 21 186
17 7 150
18 16 160
19 24 124
20 89 180
21 33 168
22 57 172
23 97 149
24 87 143
25 94 101
26 93 153
27 90 139
28 69 163
29 75 167
30 22 184
31 34 138
32 1 129
33 67 195
34 29 177
35 88 151
36 40 104
37 58 136
38 2 132
39 72 175
40 68 112
41 73 194
42 56 181
43 35 147
44 99 199
45 32 170
46 44 140
47 80 113
48 96 161
49 9 159
50 91 176
51 98 122
52 18 197
53 13 190
54 3 144
55 59 131
56 92 110
57 48 114
58 17 116
59 28 173
60 36 120
61 60 158
62 25 171
63 77 109
64 8 183
65 81 135
66 6 137
67 31 123
68 23 117
69 45 178
70 11 152
71 39 187
72 26 115
73 14 121
74 12 193
75 78 169
76 63 165
77 19 164
78 54 103
79 41 196
80 66 155
81 30 179
82 46 130
83 64 188
84 79 141
85 76 107
86 20 191
87 84 100
88 0 162
89 52 105
90 15 148
91 62 189
92 43 118
93 65 174
94 47 125
95 83 198
96 10 146
97 51 192
98 95 127
99 86 166
100 50 157
