kroA200 heuristic results iteration 78:
1 2 125
2 72 164
3 58 165
4 40 103
5 88 196
6 20 155
7 22 179
8 34 130
9 1 188
10 67 141
11 29 107
12 76 191
13 79 100
14 64 162
15 30 105
16 46 148
17 66 189
18 54 109
19 41 183
20 63 171
21 19 120
22 78 173
23 12 158
24 14 116
25 26 114
26 84 110
27 0 131
28 52 190
29 39 197
30 11 122
31 45 144
32 28 146
33 17 192
34 48 127
35 92 166
36 3 157
37 59 160
38 13 124
39 35 180
40 56 168
41 73 172
42 99 149
43 32 143
44 44 101
45 80 153
46 96 139
47 9 163
48 91 167
49 98 184
50 18 138
51 65 129
52 43 195
53 62 177
54 15 151
55 50 104
56 36 136
57 60 132
58 25 175
59 77 112
60 8 194
61 81 181
62 6 147
63 31 199
64 23 170
65 47 140
66 83 113
67 10 102
68 51 145
69 95 128
70 86 133
71 68 182
72 69 154
73 75 111
74 90 126
75 93 185
76 94 134
77 49 119
78 71 156
79 82 106
80 61 108
81 53 186
82 5 150
83 74 176
84 21 159
85 7 161
86 16 142
87 24 174
88 89 118
89 33 152
90 57 178
91 97 117
92 87 123
93 27 137
94 38 135
95 37 198
96 70 193
97 55 121
98 4 115
99 42 187
100 85 169
