kroA200 heuristic results iteration 97:
1 43 175
2 62 132
3 15 112
4 50 194
5 65 181
6 47 149
7 83 143
8 10 172
9 51 167
10 95 184
11 86 138
12 96 129
13 80 195
14 44 177
15 32 151
16 99 104
17 73 136
18 56 147
19 35 199
20 13 170
21 98 140
22 18 113
23 91 102
24 9 145
25 92 128
26 48 133
27 17 182
28 28 154
29 36 111
30 60 126
31 25 185
32 77 134
33 8 119
34 81 156
35 6 106
36 31 108
37 23 186
38 45 150
39 11 160
40 39 124
41 26 180
42 14 168
43 12 163
44 78 139
45 63 153
46 19 101
47 54 166
48 41 127
49 66 192
50 30 157
51 46 176
52 5 159
53 53 161
54 74 122
55 21 197
56 7 190
57 16 144
58 24 131
59 89 110
60 33 114
61 57 116
62 97 173
63 87 120
64 27 158
65 38 171
66 37 109
67 70 183
68 55 135
69 4 137
70 42 123
71 85 117
72 49 178
73 71 152
74 82 187
75 61 115
76 1 121
77 34 193
78 67 169
79 29 165
80 88 164
81 40 103
82 58 196
83 2 155
84 72 179
85 68 130
86 59 188
87 3 141
88 84 107
89 0 191
90 52 100
91 64 162
92 79 105
93 76 148
94 22 189
95 69 118
96 75 174
97 90 125
98 93 198
99 94 146
100 20 142
