kroA200 heuristic results iteration 67:
1 33 131
2 89 110
3 24 114
4 16 116
5 7 173
6 21 120
7 74 158
8 53 171
9 5 109
10 46 183
11 30 135
12 66 137
13 54 123
14 41 117
15 63 178
16 19 152
17 78 187
18 12 115
19 14 121
20 26 193
21 84 169
22 0 165
23 52 164
24 39 103
25 11 196
26 45 155
27 28 179
28 17 130
29 48 188
30 92 141
31 3 107
32 59 191
33 13 100
34 35 162
35 56 105
36 73 148
37 99 189
38 32 118
39 44 174
40 80 125
41 96 198
42 9 146
43 91 190
44 98 197
45 18 122
46 65 144
47 43 159
48 62 161
49 15 176
50 50 119
51 36 111
52 60 126
53 25 185
54 77 134
55 8 156
56 81 106
57 6 108
58 31 186
59 23 150
60 47 160
61 83 124
62 10 180
63 51 168
64 95 172
65 86 149
66 68 143
67 2 101
68 72 153
69 58 139
70 40 163
71 88 167
72 20 184
73 22 138
74 34 129
75 1 195
76 67 177
77 29 151
78 76 104
79 79 136
80 64 132
81 61 175
82 82 112
83 71 194
84 70 181
85 37 147
86 27 199
87 38 170
88 87 140
89 97 113
90 57 102
91 55 145
92 4 128
93 42 133
94 85 182
95 49 154
96 94 142
97 93 157
98 90 127
99 69 192
100 75 166
