kroA200 heuristic results iteration 22:
1 37 109
2 70 183
3 38 171
4 27 120
5 87 173
6 97 158
7 57 116
8 33 114
9 89 110
10 24 131
11 16 190
12 7 197
13 21 122
14 74 144
15 53 146
16 5 162
17 46 105
18 30 148
19 66 189
20 54 178
21 41 152
22 63 187
23 19 115
24 78 121
25 12 193
26 14 169
27 26 165
28 84 164
29 0 103
30 52 196
31 39 155
32 11 179
33 45 130
34 28 188
35 17 141
36 48 107
37 92 191
38 3 100
39 59 192
40 13 127
41 35 166
42 56 157
43 73 160
44 99 124
45 32 180
46 44 168
47 80 172
48 96 149
49 9 143
50 91 101
51 98 153
52 18 139
53 65 163
54 43 167
55 62 184
56 15 138
57 50 129
58 36 195
59 60 177
60 25 151
61 77 104
62 8 136
63 81 132
64 6 175
65 31 112
66 23 194
67 47 181
68 83 147
69 10 199
70 51 170
71 95 140
72 86 113
73 68 102
74 2 145
75 72 128
76 58 133
77 40 182
78 88 154
79 20 111
80 22 126
81 34 185
82 1 134
83 67 119
84 29 156
85 76 106
86 79 108
87 64 186
88 61 150
89 82 176
90 71 159
91 49 161
92 94 142
93 93 174
94 90 118
95 69 117
96 75 123
97 85 137
98 4 135
99 42 198
100 55 125
