kroA200 heuristic results iteration 91:
1 97 191
2 87 107
3 27 141
4 38 188
5 37 130
6 70 179
7 55 155
8 4 196
9 42 174
10 85 118
11 49 152
12 71 178
13 82 117
14 61 123
15 53 137
16 5 135
17 74 198
18 21 183
19 7 109
20 16 171
21 24 120
22 89 173
23 33 158
24 57 116
25 41 114
26 54 110
27 63 131
28 19 190
29 78 197
30 12 122
31 14 144
32 26 146
33 84 162
34 0 105
35 52 148
36 39 189
37 11 187
38 45 115
39 28 121
40 17 193
41 48 169
42 92 165
43 3 164
44 59 103
45 13 125
46 35 100
47 56 192
48 73 127
49 99 166
50 32 157
51 44 160
52 80 124
53 96 180
54 9 168
55 91 172
56 98 149
57 18 143
58 65 101
59 43 153
60 62 139
61 15 163
62 50 167
63 36 184
64 60 138
65 25 129
66 77 195
67 8 177
68 81 151
69 6 104
70 31 136
71 23 132
72 47 175
73 83 112
74 10 194
75 51 181
76 95 147
77 86 199
78 68 170
79 2 140
80 72 113
81 58 102
82 40 145
83 88 128
84 20 133
85 22 182
86 34 154
87 1 111
88 67 126
89 29 185
90 76 134
91 79 119
92 64 156
93 30 106
94 46 108
95 66 186
96 90 150
97 93 176
98 94 159
99 75 161
100 69 142
