kroA200 heuristic results iteration 68:
1 41 158
2 54 173
3 63 120
4 19 171
5 78 109
6 12 183
7 14 135
8 26 137
9 84 123
10 0 117
11 52 178
12 39 152
13 11 187
14 45 115
15 28 121
16 17 193
17 48 169
18 92 165
19 3 164
20 59 103
21 13 196
22 35 155
23 56 179
24 73 130
25 99 188
26 32 141
27 44 107
28 80 191
29 96 100
30 9 162
31 91 105
32 98 148
33 18 189
34 65 118
35 43 174
36 62 125
37 15 198
38 50 116
39 36 114
40 60 110
41 25 131
42 77 190
43 8 197
44 81 122
45 6 144
46 31 146
47 23 192
48 47 127
49 83 166
50 10 157
51 51 160
52 95 124
53 86 180
54 68 168
55 2 172
56 72 149
57 58 143
58 40 101
59 88 153
60 20 139
61 22 163
62 34 167
63 1 184
64 67 138
65 29 129
66 76 195
67 79 177
68 64 151
69 30 104
70 46 136
71 66 132
72 5 175
73 53 112
74 74 194
75 21 181
76 7 147
77 16 199
78 24 170
79 89 140
80 33 113
81 57 102
82 97 145
83 87 128
84 27 133
85 38 182
86 37 154
87 70 111
88 55 126
89 4 185
90 42 134
91 85 119
92 49 156
93 71 106
94 82 108
95 61 186
96 94 150
97 93 176
98 90 159
99 69 161
100 75 142
