kroA200 heuristic results iteration 62:
1 71 135
2 82 137
3 61 123
4 49 117
5 94 178
6 93 152
7 90 187
8 69 115
9 75 121
10 22 193
11 34 169
12 1 165
13 67 164
14 29 103
15 88 196
16 40 155
17 58 179
18 2 130
19 72 188
20 68 141
21 73 107
22 56 191
23 35 100
24 99 162
25 32 105
26 44 148
27 80 189
28 96 109
29 9 183
30 91 171
31 98 120
32 18 173
33 13 158
34 3 116
35 59 114
36 92 110
37 48 131
38 17 190
39 28 197
40 36 122
41 60 144
42 25 146
43 77 192
44 8 127
45 81 166
46 6 157
47 31 160
48 23 124
49 45 180
50 11 168
51 39 172
52 26 149
53 14 143
54 12 101
55 78 153
56 63 139
57 19 163
58 54 167
59 41 184
60 66 138
61 30 129
62 46 195
63 5 177
64 53 151
65 74 104
66 21 136
67 7 132
68 16 175
69 24 112
70 89 194
71 33 181
72 57 147
73 97 199
74 87 170
75 27 140
76 38 113
77 37 102
78 70 145
79 55 128
80 4 133
81 42 182
82 85 154
83 20 111
84 76 126
85 79 185
86 64 134
87 84 119
88 0 156
89 52 106
90 15 108
91 62 186
92 43 150
93 65 176
94 47 159
95 83 161
96 10 142
97 51 174
98 95 118
99 86 125
100 50 198
