kroA200 heuristic results iteration 58:
1 74 199
2 21 170
3 7 140
4 16 113
5 24 102
6 89 145
7 33 128
8 57 133
9 97 182
10 87 154
11 27 111
12 38 126
13 37 185
14 70 134
15 55 119
16 4 156
17 42 106
18 85 108
19 49 186
20 71 150
21 82 160
22 61 124
23 53 180
24 5 168
25 46 172
26 30 149
27 66 143
28 54 101
29 41 153
30 63 139
31 19 163
32 78 167
33 12 184
34 14 138
35 26 129
36 84 195
37 0 177
38 52 151
39 39 104
40 11 136
41 45 132
42 28 175
43 17 112
44 48 194
45 92 181
46 3 147
47 59 142
48 13 161
49 35 159
50 56 176
51 73 122
52 99 197
53 32 190
54 44 144
55 80 131
56 96 110
57 9 114
58 91 116
59 98 173
60 18 120
61 65 158
62 43 171
63 62 109
64 15 183
65 50 135
66 36 137
67 60 123
68 25 117
69 77 178
70 8 152
71 81 187
72 6 115
73 31 121
74 23 193
75 47 169
76 83 165
77 10 164
78 51 103
79 95 196
80 86 155
81 68 179
82 2 130
83 72 188
84 58 141
85 40 107
86 88 191
87 20 100
88 22 162
89 34 105
90 1 148
91 67 189
92 29 118
93 76 174
94 79 125
95 64 198
96 90 146
97 93 192
98 94 127
99 75 166
100 69 157
