kroA200 heuristic results iteration 81:
1 98 186
2 18 150
3 91 160
4 9 124
5 35 180
6 56 168
7 73 172
8 99 149
9 32 143
10 44 101
11 80 153
12 96 139
13 95 163
14 86 167
15 51 184
16 10 138
17 83 129
18 47 195
19 65 177
20 43 151
21 62 104
22 15 136
23 50 132
24 36 175
25 28 112
26 17 194
27 48 181
28 92 147
29 3 199
30 59 170
31 13 140
32 68 113
33 2 102
34 72 145
35 58 128
36 40 133
37 88 182
38 20 154
39 22 111
40 34 126
41 1 185
42 67 134
43 29 119
44 76 156
45 79 106
46 64 108
47 30 161
48 46 159
49 66 176
50 54 122
51 41 197
52 63 190
53 19 144
54 78 131
55 12 110
56 14 114
57 26 116
58 84 173
59 0 120
60 52 158
61 39 171
62 11 109
63 45 183
64 23 135
65 31 137
66 60 123
67 25 117
68 77 178
69 8 152
70 81 187
71 6 115
72 5 121
73 53 193
74 74 169
75 21 165
76 7 164
77 16 103
78 24 196
79 89 155
80 33 179
81 57 130
82 97 188
83 87 141
84 27 107
85 38 191
86 37 100
87 70 162
88 55 105
89 4 148
90 42 189
91 85 118
92 49 174
93 71 125
94 82 198
95 61 146
96 94 192
97 93 127
98 90 166
99 69 157
100 75 142
