kroA200 heuristic results iteration 43:
1 78 150
2 12 186
3 14 108
4 26 106
5 84 156
6 0 119
7 52 111
8 39 126
9 11 185
10 45 134
11 28 161
12 17 159
13 48 176
14 92 122
15 3 197
16 59 190
17 13 144
18 35 131
19 56 110
20 73 114
21 99 116
22 32 173
23 44 120
24 80 158
25 96 171
26 9 109
27 91 183
28 98 135
29 18 137
30 65 123
31 43 117
32 62 178
33 15 152
34 50 187
35 36 115
36 60 121
37 25 193
38 77 169
39 8 165
40 81 164
41 6 103
42 31 196
43 23 155
44 47 179
45 83 130
46 10 188
47 51 141
48 95 107
49 86 191
50 68 100
51 2 162
52 72 105
53 58 148
54 40 189
55 88 118
56 20 174
57 22 125
58 34 198
59 1 146
60 67 192
61 29 127
62 76 166
63 79 157
64 64 160
65 30 124
66 46 180
67 66 168
68 54 172
69 41 149
70 63 143
71 19 101
72 5 153
73 53 139
74 74 163
75 21 167
76 7 184
77 16 138
78 24 129
79 89 195
80 33 177
81 57 151
82 97 104
83 87 136
84 27 132
85 38 175
86 37 112
87 70 194
88 55 181
89 4 147
90 42 199
91 85 170
92 49 140
93 71 113
94 82 102
95 61 145
96 94 128
97 93 133
98 90 182
99 69 154
100 75 142
