kroA200 heuristic results iteration 50:
1 25 170
2 60 140
3 31 199
4 23 147
5 45 113
6 28 102
7 17 145
8 48 128
9 92 133
10 3 182
11 59 154
12 13 111
13 35 126
14 56 185
15 73 134
16 99 119
17 32 156
18 44 106
19 80 108
20 96 186
21 9 150
22 91 160
23 98 124
24 18 180
25 65 168
26 43 172
27 62 149
28 15 143
29 50 101
30 36 153
31 8 139
32 77 163
33 81 167
34 6 184
35 11 138
36 39 129
37 26 195
38 14 177
39 12 151
40 78 104
41 63 136
42 19 132
43 54 175
44 41 112
45 66 194
46 30 181
47 46 157
48 5 127
49 53 192
50 74 166
51 21 100
52 7 162
53 16 105
54 24 148
55 89 189
56 33 109
57 57 183
58 97 171
59 87 120
60 27 173
61 38 158
62 37 116
63 70 114
64 55 110
65 4 131
66 42 190
67 85 197
68 49 122
69 71 144
70 82 146
71 61 191
72 1 107
73 34 141
74 67 188
75 29 130
76 88 179
77 40 155
78 58 196
79 2 174
80 72 118
81 68 152
82 76 178
83 79 117
84 64 123
85 84 137
86 0 135
87 52 198
88 47 193
89 83 121
90 10 115
91 51 187
92 95 169
93 86 165
94 20 164
95 22 103
96 69 125
97 75 176
98 90 159
99 93 161
100 94 142
