kroA200 heuristic results iteration 6:
1 50 102
2 62 145
3 43 128
4 65 133
5 47 182
6 83 154
7 10 111
8 51 126
9 95 185
10 86 134
11 96 119
12 80 156
13 44 106
14 32 108
15 99 186
16 73 150
17 56 160
18 35 124
19 13 180
20 98 168
21 18 172
22 91 149
23 9 143
24 92 101
25 48 153
26 17 139
27 28 163
28 36 167
29 60 184
30 25 138
31 77 129
32 8 195
33 81 177
34 6 151
35 31 104
36 23 136
37 45 132
38 11 175
39 39 112
40 26 194
41 14 181
42 12 147
43 78 199
44 63 170
45 19 140
46 54 113
47 41 142
48 66 161
49 30 159
50 46 176
51 5 122
52 53 197
53 74 190
54 21 144
55 7 131
56 16 110
57 24 114
58 89 116
59 33 173
60 57 120
61 97 158
62 87 171
63 27 109
64 38 183
65 37 135
66 70 137
67 55 123
68 4 117
69 42 178
70 85 152
71 49 187
72 71 115
73 82 121
74 61 193
75 1 169
76 34 165
77 67 164
78 29 103
79 88 196
80 40 155
81 58 179
82 2 130
83 72 188
84 68 141
85 59 107
86 3 191
87 84 100
88 0 162
89 52 105
90 64 148
91 79 189
92 76 118
93 22 174
94 69 125
95 75 198
96 90 146
97 93 192
98 94 127
99 20 166
100 15 157
