kroA200 heuristic results iteration 1:
1 19 194
2 63 112
3 54 132
4 41 175
5 66 181
6 30 149
7 46 143
8 5 172
9 53 167
10 74 184
11 21 138
12 7 129
13 16 195
14 24 177
15 89 151
16 33 104
17 57 136
18 97 147
19 87 199
20 27 170
21 38 140
22 37 113
23 70 102
24 55 145
25 4 128
26 42 133
27 85 182
28 49 154
29 71 111
30 82 126
31 61 185
32 1 134
33 34 119
34 67 156
35 29 106
36 88 108
37 40 186
38 58 150
39 2 160
40 72 124
41 68 180
42 73 168
43 56 163
44 35 139
45 99 153
46 32 101
47 44 166
48 80 127
49 96 192
50 9 157
51 91 176
52 98 159
53 18 161
54 13 122
55 3 197
56 59 190
57 92 144
58 48 131
59 17 110
60 28 114
61 36 116
62 60 173
63 25 120
64 77 158
65 8 171
66 81 109
67 6 183
68 31 135
69 23 137
70 45 123
71 11 117
72 39 178
73 26 152
74 14 187
75 12 115
76 78 121
77 64 193
78 79 169
79 76 165
80 22 164
81 69 103
82 75 196
83 90 155
84 93 179
85 94 130
86 20 188
87 84 141
88 0 107
89 52 191
90 15 100
91 62 162
92 43 105
93 65 148
94 47 189
95 83 118
96 10 174
97 51 125
98 95 198
99 86 146
100 50 142
