kroA200 heuristic results iteration 7:
1 83 182
2 10 154
3 51 133
4 47 128
5 65 145
6 43 102
7 62 142
8 15 113
9 50 170
10 36 140
11 28 199
12 17 147
13 48 151
14 92 177
15 3 195
16 59 104
17 13 136
18 35 132
19 56 175
20 73 112
21 99 194
22 32 181
23 44 149
24 80 143
25 96 172
26 9 167
27 91 184
28 98 138
29 18 129
30 11 108
31 39 106
32 26 156
33 14 186
34 12 150
35 78 160
36 63 124
37 19 180
38 54 168
39 41 163
40 66 139
41 30 153
42 46 101
43 5 166
44 53 127
45 74 192
46 21 157
47 7 176
48 16 159
49 24 161
50 89 185
51 33 126
52 57 111
53 97 119
54 87 134
55 27 122
56 38 197
57 37 190
58 70 144
59 55 131
60 4 110
61 42 114
62 85 116
63 49 173
64 71 120
65 82 158
66 61 171
67 1 109
68 34 183
69 67 135
70 29 137
71 88 123
72 40 117
73 58 178
74 2 152
75 72 187
76 68 115
77 76 121
78 79 193
79 64 169
80 84 165
81 0 164
82 52 103
83 45 196
84 23 155
85 31 179
86 60 130
87 25 188
88 77 141
89 8 107
90 81 191
91 6 100
92 95 162
93 86 105
94 20 148
95 22 189
96 69 118
97 75 174
98 90 125
99 93 198
100 94 146
