kroA200 heuristic results iteration 65:
1 48 101
2 17 143
3 28 149
4 36 172
5 60 167
6 25 184
7 77 138
8 8 129
9 81 195
10 6 177
11 31 151
12 23 104
13 45 136
14 11 132
15 39 175
16 26 112
17 14 194
18 12 181
19 78 163
20 63 139
21 19 153
22 54 168
23 41 180
24 66 124
25 30 160
26 46 150
27 5 186
28 53 108
29 74 106
30 21 156
31 7 119
32 16 111
33 24 126
34 89 185
35 33 134
36 57 161
37 97 159
38 87 176
39 27 122
40 38 197
41 37 190
42 70 144
43 55 131
44 4 110
45 42 114
46 85 116
47 49 173
48 71 120
49 82 158
50 61 171
51 1 109
52 34 183
53 67 135
54 29 137
55 88 123
56 40 117
57 58 178
58 2 152
59 72 187
60 68 115
61 73 121
62 56 193
63 35 169
64 99 165
65 32 164
66 44 103
67 80 196
68 96 155
69 9 179
70 91 130
71 98 188
72 18 141
73 13 107
74 3 191
75 59 100
76 92 162
77 65 105
78 43 148
79 62 189
80 15 118
81 50 174
82 47 125
83 83 198
84 10 146
85 51 192
86 95 127
87 86 166
88 52 157
89 0 154
90 84 182
91 64 133
92 79 128
93 76 145
94 22 102
95 69 142
96 75 113
97 90 170
98 93 140
99 94 199
100 20 147
