kroA200 heuristic results iteration 47:
1 55 175
2 37 132
3 70 112
4 38 194
5 27 181
6 87 149
7 97 143
8 57 172
9 33 167
10 89 184
11 24 138
12 16 129
13 7 195
14 21 177
15 74 151
16 53 104
17 5 136
18 46 147
19 30 199
20 66 170
21 54 140
22 41 113
23 63 102
24 19 145
25 78 128
26 12 133
27 14 182
28 26 154
29 84 111
30 0 126
31 52 185
32 39 134
33 11 119
34 45 156
35 28 106
36 17 108
37 48 186
38 92 150
39 3 160
40 59 124
41 13 180
42 35 168
43 56 163
44 73 139
45 99 153
46 32 101
47 44 166
48 80 127
49 96 192
50 9 157
51 91 176
52 98 159
53 18 161
54 65 122
55 43 197
56 62 190
57 15 144
58 50 131
59 36 110
60 60 114
61 25 116
62 77 173
63 8 120
64 81 158
65 6 171
66 31 109
67 23 183
68 47 135
69 83 137
70 10 123
71 51 117
72 95 178
73 86 152
74 68 187
75 2 115
76 72 121
77 58 193
78 40 169
79 88 165
80 20 164
81 22 103
82 34 196
83 1 155
84 67 179
85 29 130
86 76 188
87 79 141
88 64 107
89 61 191
90 82 100
91 71 162
92 49 105
93 94 148
94 93 189
95 90 118
96 69 174
97 75 125
98 85 198
99 4 146
100 42 142
