kroA200 heuristic results iteration 92:
1 82 121
2 61 115
3 71 187
4 70 193
5 37 169
6 27 152
7 38 178
8 87 117
9 97 123
10 57 137
11 33 135
12 89 198
13 24 183
14 16 109
15 7 171
16 21 120
17 74 173
18 53 158
19 5 116
20 46 114
21 30 110
22 66 131
23 54 190
24 41 197
25 63 122
26 19 144
27 78 146
28 12 162
29 14 105
30 26 148
31 84 189
32 0 118
33 52 174
34 39 196
35 11 155
36 45 179
37 28 130
38 17 188
39 48 141
40 92 107
41 3 191
42 59 100
43 13 192
44 35 127
45 56 166
46 73 157
47 99 160
48 32 124
49 44 180
50 80 168
51 96 172
52 9 149
53 91 143
54 98 101
55 18 153
56 65 139
57 43 163
58 62 167
59 15 184
60 50 138
61 36 129
62 60 195
63 25 177
64 77 151
65 8 104
66 81 136
67 6 132
68 31 175
69 23 112
70 47 194
71 83 181
72 10 147
73 51 199
74 95 170
75 86 140
76 68 113
77 2 102
78 72 145
79 58 128
80 40 133
81 88 182
82 20 154
83 22 111
84 34 126
85 1 185
86 67 134
87 29 119
88 76 156
89 79 106
90 64 108
91 49 186
92 94 150
93 93 176
94 90 159
95 69 161
96 75 142
97 85 103
98 4 164
99 42 165
100 55 125
