kroA200 heuristic results iteration 38:
1 12 133
2 78 182
3 14 154
4 26 111
5 84 126
6 0 185
7 52 134
8 39 119
9 11 156
10 45 106
11 28 108
12 17 186
13 48 150
14 92 160
15 3 124
16 59 180
17 13 168
18 35 172
19 56 149
20 73 143
21 99 101
22 32 153
23 44 139
24 80 163
25 96 167
26 9 184
27 91 138
28 98 129
29 18 195
30 65 177
31 43 151
32 62 104
33 15 136
34 50 132
35 36 175
36 60 112
37 25 194
38 77 181
39 8 147
40 81 199
41 6 170
42 31 140
43 23 113
44 47 102
45 83 145
46 10 128
47 51 142
48 95 161
49 86 159
50 68 176
51 2 122
52 72 197
53 58 190
54 40 144
55 88 131
56 20 110
57 22 114
58 34 116
59 1 173
60 67 120
61 29 158
62 76 171
63 79 109
64 64 183
65 30 135
66 46 137
67 66 123
68 54 117
69 41 178
70 63 152
71 19 187
72 5 115
73 53 121
74 74 193
75 21 169
76 7 165
77 16 164
78 24 103
79 89 196
80 33 155
81 57 179
82 97 130
83 87 188
84 27 141
85 38 107
86 37 191
87 70 100
88 55 162
89 4 105
90 42 148
91 85 189
92 49 118
93 71 174
94 82 125
95 61 198
96 94 146
97 93 192
98 90 127
99 69 166
100 75 157
