kroA200 heuristic results iteration 73:
1 14 195
2 12 177
3 78 151
4 63 104
5 19 136
6 54 132
7 41 175
8 66 112
9 30 194
10 46 181
11 5 149
12 53 143
13 74 172
14 21 167
15 7 184
16 16 138
17 24 129
18 89 147
19 33 199
20 57 170
21 97 140
22 87 113
23 27 102
24 38 145
25 37 128
26 70 133
27 55 182
28 4 154
29 42 111
30 85 126
31 49 185
32 71 134
33 82 119
34 61 156
35 1 106
36 34 108
37 67 186
38 29 150
39 88 160
40 40 124
41 58 180
42 2 168
43 72 163
44 68 139
45 73 153
46 56 101
47 35 166
48 99 127
49 32 192
50 44 157
51 80 176
52 96 159
53 9 161
54 91 122
55 98 197
56 18 190
57 13 144
58 3 131
59 59 110
60 92 114
61 48 116
62 17 173
63 28 120
64 36 158
65 60 171
66 25 109
67 77 183
68 8 135
69 81 137
70 6 123
71 31 117
72 23 178
73 45 152
74 11 187
75 39 115
76 26 121
77 84 193
78 0 169
79 52 165
80 64 164
81 79 103
82 76 196
83 22 155
84 69 179
85 75 130
86 90 188
87 93 141
88 94 107
89 20 191
90 65 100
91 43 162
92 62 105
93 15 148
94 50 189
95 47 118
96 83 174
97 10 125
98 51 198
99 95 146
100 86 142
