kroA200 heuristic results iteration 80:
1 67 183
2 29 109
3 34 171
4 1 120
5 22 173
6 69 158
7 75 116
8 90 114
9 93 110
10 94 131
11 49 190
12 71 197
13 82 122
14 61 144
15 53 146
16 5 162
17 74 105
18 21 148
19 7 189
20 16 178
21 24 152
22 89 187
23 33 115
24 57 121
25 97 193
26 87 169
27 27 165
28 38 164
29 37 103
30 70 196
31 55 155
32 4 179
33 42 130
34 85 188
35 20 141
36 88 107
37 40 191
38 58 100
39 2 192
40 72 127
41 68 166
42 73 157
43 56 160
44 35 124
45 99 180
46 32 168
47 44 172
48 80 149
49 96 143
50 9 101
51 91 153
52 98 139
53 18 163
54 13 167
55 3 184
56 59 138
57 92 129
58 48 195
59 17 177
60 28 151
61 36 104
62 60 136
63 25 132
64 77 175
65 8 112
66 81 194
67 6 181
68 31 147
69 23 199
70 45 170
71 11 140
72 39 113
73 26 102
74 14 145
75 12 128
76 78 133
77 63 182
78 19 154
79 54 111
80 41 126
81 66 185
82 30 134
83 46 119
84 64 156
85 79 106
86 76 108
87 84 186
88 0 150
89 52 176
90 15 159
91 62 161
92 43 142
93 65 174
94 47 118
95 83 117
96 10 123
97 51 137
98 95 135
99 86 198
100 50 125
