kroA200 heuristic results iteration 82:
1 71 105
2 82 148
3 61 162
4 49 100
5 94 191
6 93 107
7 90 141
8 69 188
9 75 130
10 22 179
11 34 155
12 1 196
13 67 174
14 29 118
15 88 152
16 40 178
17 58 117
18 2 123
19 72 137
20 68 135
21 73 198
22 56 183
23 35 109
24 99 171
25 32 120
26 44 173
27 80 158
28 96 116
29 9 114
30 91 110
31 98 131
32 18 190
33 13 197
34 3 122
35 59 144
36 92 146
37 48 192
38 17 127
39 28 166
40 36 157
41 60 160
42 25 124
43 77 180
44 8 168
45 81 172
46 6 149
47 31 143
48 23 101
49 45 153
50 11 139
51 39 163
52 26 167
53 14 184
54 12 138
55 78 129
56 63 195
57 19 177
58 54 151
59 41 104
60 66 136
61 30 132
62 46 175
63 5 112
64 53 194
65 74 181
66 21 147
67 7 199
68 16 170
69 24 140
70 89 113
71 33 102
72 57 145
73 97 128
74 87 133
75 27 182
76 38 154
77 37 111
78 70 126
79 55 185
80 4 134
81 42 119
82 85 156
83 20 106
84 76 108
85 79 186
86 64 150
87 84 176
88 0 159
89 52 161
90 15 142
91 62 189
92 43 187
93 65 115
94 47 121
95 83 193
96 10 169
97 51 165
98 95 164
99 86 103
100 50 125
