kroA200 heuristic results iteration 49:
1 78 183
2 12 109
3 14 171
4 26 120
5 84 173
6 0 158
7 52 116
8 39 114
9 11 110
10 45 131
11 28 190
12 17 197
13 48 122
14 92 144
15 3 146
16 59 162
17 13 105
18 35 148
19 56 189
20 73 178
21 99 152
22 32 187
23 44 115
24 80 121
25 96 193
26 9 169
27 91 165
28 98 164
29 18 103
30 65 196
31 43 155
32 62 179
33 15 130
34 50 188
35 36 141
36 60 107
37 25 191
38 77 100
39 8 192
40 81 127
41 6 166
42 31 157
43 23 160
44 47 124
45 83 180
46 10 168
47 51 172
48 95 149
49 86 143
50 68 101
51 2 153
52 72 139
53 58 163
54 40 167
55 88 184
56 20 138
57 22 129
58 34 195
59 1 177
60 67 151
61 29 104
62 76 136
63 79 132
64 64 175
65 30 112
66 46 194
67 66 181
68 54 147
69 41 199
70 63 170
71 19 140
72 5 113
73 53 102
74 74 145
75 21 128
76 7 133
77 16 182
78 24 154
79 89 111
80 33 126
81 57 185
82 97 134
83 87 119
84 27 156
85 38 106
86 37 108
87 70 186
88 55 150
89 4 176
90 42 159
91 85 161
92 49 142
93 71 174
94 82 118
95 61 117
96 94 123
97 93 137
98 90 135
99 69 198
100 75 125
