kroA200 heuristic results iteration 37:
1 29 133
2 67 182
3 34 154
4 1 111
5 22 126
6 69 185
7 75 134
8 90 119
9 93 156
10 94 106
11 49 108
12 71 186
13 82 150
14 61 160
15 53 124
16 5 180
17 74 168
18 21 172
19 7 149
20 16 143
21 24 101
22 89 153
23 33 139
24 57 163
25 97 167
26 87 184
27 27 138
28 38 129
29 37 195
30 70 177
31 55 151
32 4 104
33 42 136
34 85 132
35 20 175
36 88 112
37 40 194
38 58 181
39 2 147
40 72 199
41 68 170
42 73 140
43 56 113
44 35 102
45 99 145
46 32 128
47 44 142
48 80 161
49 96 159
50 9 176
51 91 122
52 98 197
53 18 190
54 13 144
55 3 131
56 59 110
57 92 114
58 48 116
59 17 173
60 28 120
61 36 158
62 60 171
63 25 109
64 77 183
65 8 135
66 81 137
67 6 123
68 31 117
69 23 178
70 45 152
71 11 187
72 39 115
73 26 121
74 14 193
75 12 169
76 78 165
77 63 164
78 19 103
79 54 196
80 41 155
81 66 179
82 30 130
83 46 188
84 64 141
85 79 107
86 76 191
87 84 100
88 0 162
89 52 105
90 15 148
91 62 189
92 43 118
93 65 174
94 47 125
95 83 198
96 10 146
97 51 192
98 95 127
99 86 166
100 50 157
