kroA200 heuristic results iteration 4:
1 84 183
2 0 109
3 52 171
4 39 120
5 11 173
6 45 158
7 28 116
8 17 114
9 48 110
10 92 131
11 3 190
12 59 197
13 13 122
14 35 144
15 56 146
16 73 162
17 99 105
18 32 148
19 44 189
20 80 178
21 96 152
22 9 187
23 91 115
24 98 121
25 18 193
26 65 169
27 43 165
28 62 164
29 15 103
30 50 196
31 36 155
32 60 179
33 25 130
34 77 188
35 8 141
36 81 107
37 6 191
38 31 100
39 23 192
40 26 127
41 14 166
42 12 157
43 78 160
44 63 124
45 19 180
46 54 168
47 41 172
48 66 149
49 30 143
50 46 101
51 5 153
52 53 139
53 74 163
54 21 167
55 7 184
56 16 138
57 24 129
58 89 195
59 33 177
60 57 151
61 97 104
62 87 136
63 27 132
64 38 175
65 37 112
66 70 194
67 55 181
68 4 147
69 42 199
70 85 170
71 49 140
72 71 113
73 82 102
74 61 145
75 1 128
76 34 133
77 67 182
78 29 154
79 88 111
80 40 126
81 58 185
82 2 134
83 72 119
84 68 156
85 76 106
86 79 108
87 64 186
88 22 150
89 69 176
90 75 159
91 90 161
92 93 142
93 94 174
94 20 118
95 95 117
96 86 123
97 51 137
98 10 135
99 83 198
100 47 125
