kroA200 heuristic results iteration 89:
1 21 166
2 7 127
3 74 192
4 53 157
5 5 160
6 46 124
7 30 180
8 66 168
9 54 172
10 41 149
11 63 143
12 19 101
13 78 153
14 12 139
15 14 163
16 26 167
17 84 184
18 0 138
19 52 129
20 39 195
21 11 177
22 45 151
23 28 104
24 17 136
25 48 132
26 92 175
27 3 112
28 59 194
29 13 181
30 35 147
31 56 199
32 73 170
33 99 140
34 32 113
35 44 102
36 80 145
37 96 128
38 9 133
39 91 182
40 98 154
41 18 111
42 65 126
43 43 185
44 62 134
45 15 119
46 50 156
47 36 106
48 60 108
49 25 186
50 77 150
51 8 176
52 81 159
53 6 161
54 31 122
55 23 197
56 47 190
57 83 144
58 10 131
59 51 110
60 95 114
61 86 116
62 68 173
63 2 120
64 72 158
65 58 171
66 40 109
67 88 183
68 20 135
69 22 137
70 34 123
71 1 117
72 67 178
73 29 152
74 76 187
75 79 115
76 64 121
77 61 193
78 82 169
79 71 165
80 70 164
81 37 103
82 27 196
83 38 155
84 87 179
85 97 130
86 57 188
87 33 141
88 89 107
89 24 191
90 16 100
91 55 162
92 4 105
93 42 148
94 85 189
95 49 118
96 94 174
97 93 125
98 90 198
99 69 146
100 75 142
