kroA200 heuristic results iteration 52:
1 28 194
2 17 112
3 48 132
4 92 175
5 3 181
6 59 149
7 13 143
8 35 172
9 56 167
10 73 184
11 99 138
12 32 129
13 44 195
14 80 177
15 96 151
16 9 104
17 91 136
18 98 147
19 18 199
20 65 170
21 43 140
22 62 113
23 15 102
24 50 145
25 36 128
26 60 133
27 25 182
28 77 154
29 8 111
30 81 126
31 6 185
32 31 134
33 23 119
34 45 156
35 11 106
36 39 108
37 26 186
38 14 150
39 12 160
40 78 124
41 63 180
42 19 168
43 54 163
44 41 139
45 66 153
46 30 101
47 46 166
48 5 127
49 53 192
50 74 157
51 21 176
52 7 159
53 16 161
54 24 122
55 89 197
56 33 190
57 57 144
58 97 131
59 87 110
60 27 114
61 38 116
62 37 173
63 70 120
64 55 158
65 4 171
66 42 109
67 85 183
68 49 135
69 71 137
70 82 123
71 61 117
72 1 178
73 34 152
74 67 187
75 29 115
76 88 121
77 40 193
78 58 169
79 2 165
80 72 164
81 68 103
82 76 196
83 79 155
84 64 179
85 84 130
86 0 188
87 52 141
88 47 107
89 83 191
90 10 100
91 51 162
92 95 105
93 86 148
94 20 189
95 22 118
96 69 174
97 75 125
98 90 198
99 93 146
100 94 142
