kroA200 heuristic results iteration 35:
1 55 114
2 37 116
3 70 110
4 38 131
5 27 190
6 87 197
7 97 122
8 57 144
9 33 146
10 89 162
11 24 105
12 16 148
13 7 189
14 21 109
15 74 183
16 53 171
17 5 120
18 46 173
19 30 158
20 66 135
21 54 137
22 41 123
23 63 117
24 19 178
25 78 152
26 12 187
27 14 115
28 26 121
29 84 193
30 0 169
31 52 165
32 39 164
33 11 103
34 45 196
35 28 155
36 17 179
37 48 130
38 92 188
39 3 141
40 59 107
41 13 191
42 35 100
43 56 192
44 73 127
45 99 166
46 32 157
47 44 160
48 80 124
49 96 180
50 9 168
51 91 172
52 98 149
53 18 143
54 65 101
55 43 153
56 62 139
57 15 163
58 50 167
59 36 184
60 60 138
61 25 129
62 77 195
63 8 177
64 81 151
65 6 104
66 31 136
67 23 132
68 47 175
69 83 112
70 10 194
71 51 181
72 95 147
73 86 199
74 68 170
75 2 140
76 72 113
77 58 102
78 40 145
79 88 128
80 20 133
81 22 182
82 34 154
83 1 111
84 67 126
85 29 185
86 76 134
87 79 119
88 64 156
89 61 106
90 82 108
91 71 186
92 49 150
93 94 176
94 93 159
95 90 161
96 69 142
97 75 174
98 85 118
99 4 125
100 42 198
