kroA200 heuristic results iteration 71:
1 88 134
2 40 185
3 58 126
4 2 111
5 72 119
6 68 156
7 73 106
8 56 108
9 35 186
10 99 150
11 32 160
12 44 124
13 80 180
14 96 168
15 9 172
16 91 149
17 98 143
18 18 101
19 13 153
20 3 139
21 59 163
22 92 167
23 48 184
24 17 138
25 28 129
26 36 195
27 60 177
28 25 151
29 77 104
30 8 136
31 81 132
32 6 175
33 31 112
34 23 194
35 45 181
36 11 147
37 39 199
38 26 170
39 14 140
40 12 113
41 78 102
42 63 145
43 19 128
44 54 133
45 41 182
46 66 154
47 30 142
48 46 161
49 5 159
50 53 176
51 74 122
52 21 197
53 7 190
54 16 144
55 24 131
56 89 110
57 33 114
58 57 116
59 97 173
60 87 120
61 27 158
62 38 171
63 37 109
64 70 183
65 55 135
66 4 137
67 42 123
68 85 117
69 49 178
70 71 152
71 82 187
72 61 115
73 1 121
74 34 193
75 67 169
76 29 165
77 76 164
78 79 103
79 64 196
80 84 155
81 0 179
82 52 130
83 15 188
84 62 141
85 43 107
86 65 191
87 47 100
88 83 162
89 10 105
90 51 148
91 95 189
92 86 118
93 50 174
94 20 125
95 22 198
96 69 146
97 75 192
98 90 127
99 93 166
100 94 157
