kroA200 heuristic results iteration 34:
1 42 138
2 4 129
3 55 195
4 37 177
5 70 151
6 38 104
7 27 136
8 87 132
9 97 175
10 57 112
11 33 194
12 89 181
13 24 149
14 16 143
15 7 172
16 21 167
17 74 184
18 53 180
19 5 124
20 46 160
21 30 150
22 66 186
23 54 108
24 41 106
25 63 156
26 19 119
27 78 111
28 12 126
29 14 185
30 26 134
31 84 161
32 0 159
33 52 176
34 39 122
35 11 197
36 45 190
37 28 144
38 17 131
39 48 110
40 92 114
41 3 116
42 59 173
43 13 120
44 35 158
45 56 171
46 73 109
47 99 183
48 32 135
49 44 137
50 80 123
51 96 117
52 9 178
53 91 152
54 98 187
55 18 115
56 65 121
57 43 193
58 62 169
59 15 165
60 50 164
61 36 103
62 60 196
63 25 155
64 77 179
65 8 130
66 81 188
67 6 141
68 31 107
69 23 191
70 47 100
71 83 162
72 10 105
73 51 148
74 95 189
75 86 118
76 68 174
77 2 125
78 72 198
79 58 146
80 40 192
81 88 127
82 20 166
83 22 157
84 34 168
85 1 163
86 67 139
87 29 153
88 76 101
89 79 133
90 64 182
91 61 154
92 82 145
93 71 102
94 49 142
95 94 128
96 93 113
97 90 170
98 69 140
99 75 199
100 85 147
