kroA200 heuristic results iteration 100:
1 54 148
2 41 105
3 63 162
4 19 100
5 78 191
6 12 107
7 14 141
8 26 188
9 84 130
10 0 179
11 52 155
12 39 196
13 11 174
14 45 118
15 28 152
16 17 178
17 48 117
18 92 123
19 3 137
20 59 135
21 13 198
22 35 183
23 56 109
24 73 171
25 99 120
26 32 173
27 44 158
28 80 116
29 96 114
30 9 110
31 91 131
32 98 190
33 18 197
34 65 122
35 43 144
36 62 146
37 15 192
38 50 127
39 36 166
40 60 157
41 25 160
42 77 124
43 8 180
44 81 168
45 6 172
46 31 149
47 23 143
48 47 101
49 83 153
50 10 139
51 51 163
52 95 167
53 86 184
54 68 138
55 2 129
56 72 195
57 58 177
58 40 151
59 88 104
60 20 136
61 22 132
62 34 175
63 1 112
64 67 194
65 29 181
66 76 147
67 79 199
68 64 170
69 30 140
70 46 113
71 66 102
72 5 145
73 53 128
74 74 133
75 21 182
76 7 154
77 16 111
78 24 126
79 89 185
80 33 134
81 57 119
82 97 156
83 87 106
84 27 108
85 38 186
86 37 150
87 70 176
88 55 159
89 4 161
90 42 142
91 85 189
92 49 187
93 71 115
94 82 121
95 61 193
96 94 169
97 93 165
98 90 164
99 69 103
100 75 125
