kroA200 heuristic results iteration 96:
1 93 178
2 94 152
3 90 187
4 69 115
5 75 121
6 22 193
7 34 169
8 1 165
9 67 164
10 29 103
11 88 196
12 40 155
13 58 179
14 2 130
15 72 188
16 68 141
17 73 107
18 56 191
19 35 100
20 99 162
21 32 105
22 44 148
23 80 189
24 96 109
25 9 183
26 91 171
27 98 120
28 18 173
29 13 158
30 3 116
31 59 114
32 92 110
33 48 131
34 17 190
35 28 197
36 36 122
37 60 144
38 25 146
39 77 192
40 8 127
41 81 166
42 6 157
43 31 160
44 23 124
45 45 180
46 11 168
47 39 172
48 26 149
49 14 143
50 12 101
51 78 153
52 63 139
53 19 163
54 54 167
55 41 184
56 66 138
57 30 129
58 46 195
59 5 177
60 53 151
61 74 104
62 21 136
63 7 132
64 16 175
65 24 112
66 89 194
67 33 181
68 57 147
69 97 199
70 87 170
71 27 140
72 38 113
73 37 102
74 70 145
75 55 128
76 4 133
77 42 182
78 85 154
79 49 111
80 71 126
81 82 185
82 61 134
83 79 119
84 76 156
85 64 106
86 84 108
87 0 186
88 52 150
89 15 176
90 62 159
91 43 161
92 65 142
93 47 174
94 83 118
95 10 117
96 51 123
97 95 137
98 86 135
99 50 198
100 20 125
