kroA200 heuristic results iteration 84:
1 3 163
2 59 139
3 13 153
4 35 101
5 56 143
6 73 149
7 99 172
8 32 167
9 44 184
10 80 138
11 96 129
12 9 195
13 91 177
14 98 151
15 18 104
16 92 136
17 48 132
18 17 175
19 28 112
20 36 194
21 60 181
22 25 168
23 77 180
24 8 124
25 81 160
26 6 150
27 31 186
28 23 108
29 45 106
30 11 156
31 39 119
32 26 111
33 14 126
34 12 185
35 78 134
36 63 161
37 19 159
38 54 176
39 41 122
40 66 197
41 30 190
42 46 144
43 5 131
44 53 110
45 74 114
46 21 116
47 7 173
48 16 120
49 24 158
50 89 171
51 33 109
52 57 183
53 97 135
54 87 137
55 27 123
56 38 117
57 37 178
58 70 152
59 55 187
60 4 115
61 42 121
62 85 193
63 49 169
64 71 165
65 82 164
66 61 103
67 1 196
68 34 155
69 67 179
70 29 130
71 88 188
72 40 141
73 58 107
74 2 191
75 72 100
76 68 162
77 76 105
78 79 148
79 64 189
80 84 118
81 0 174
82 52 125
83 15 198
84 62 146
85 43 192
86 65 127
87 47 166
88 83 157
89 10 154
90 51 182
91 95 133
92 86 128
93 50 145
94 20 102
95 22 142
96 69 113
97 75 170
98 90 140
99 93 199
100 94 147
