kroA200 heuristic results iteration 55:
1 54 145
2 41 102
3 63 142
4 19 128
5 78 133
6 12 182
7 14 154
8 26 111
9 84 126
10 0 185
11 52 134
12 39 119
13 11 156
14 45 106
15 28 108
16 17 186
17 48 150
18 92 160
19 3 124
20 59 180
21 13 168
22 35 172
23 56 149
24 73 143
25 99 101
26 32 153
27 44 139
28 80 163
29 96 167
30 9 184
31 91 138
32 98 129
33 18 195
34 65 177
35 43 151
36 62 104
37 15 136
38 50 132
39 36 175
40 60 112
41 25 194
42 77 181
43 8 147
44 81 199
45 6 170
46 31 140
47 23 113
48 47 161
49 83 159
50 10 176
51 51 122
52 95 197
53 86 190
54 68 144
55 2 131
56 72 110
57 58 114
58 40 116
59 88 173
60 20 120
61 22 158
62 34 171
63 1 109
64 67 183
65 29 135
66 76 137
67 79 123
68 64 117
69 30 178
70 46 152
71 66 187
72 5 115
73 53 121
74 74 193
75 21 169
76 7 165
77 16 164
78 24 103
79 89 196
80 33 155
81 57 179
82 97 130
83 87 188
84 27 141
85 38 107
86 37 191
87 70 100
88 55 162
89 4 105
90 42 148
91 85 189
92 49 118
93 71 174
94 82 125
95 61 198
96 94 146
97 93 192
98 90 127
99 69 166
100 75 157
