kroA200 heuristic results iteration 57:
1 63 167
2 19 184
3 54 138
4 41 129
5 66 195
6 30 177
7 46 151
8 5 104
9 53 136
10 74 132
11 21 175
12 7 112
13 16 194
14 24 181
15 89 149
16 33 143
17 57 172
18 97 168
19 87 163
20 27 139
21 38 153
22 37 101
23 70 180
24 55 124
25 4 160
26 42 150
27 85 186
28 49 108
29 71 106
30 82 156
31 61 119
32 1 111
33 34 126
34 67 185
35 29 134
36 88 161
37 40 159
38 58 176
39 2 122
40 72 197
41 68 190
42 73 144
43 56 131
44 35 110
45 99 114
46 32 116
47 44 173
48 80 120
49 96 158
50 9 171
51 91 109
52 98 183
53 18 135
54 13 137
55 3 123
56 59 117
57 92 178
58 48 152
59 17 187
60 28 115
61 36 121
62 60 193
63 25 169
64 77 165
65 8 164
66 81 103
67 6 196
68 31 155
69 23 179
70 45 130
71 11 188
72 39 141
73 26 107
74 14 191
75 12 100
76 78 162
77 64 105
78 79 148
79 76 189
80 22 118
81 69 174
82 75 125
83 90 198
84 93 146
85 94 192
86 20 127
87 84 166
88 0 157
89 52 154
90 15 182
91 62 133
92 43 128
93 65 145
94 47 102
95 83 142
96 10 113
97 51 170
98 95 140
99 86 199
100 50 147
