kroA200 heuristic results iteration 75:
1 60 104
2 25 136
3 77 177
4 8 151
5 81 195
6 6 138
7 31 129
8 23 147
9 45 199
10 28 170
11 17 140
12 48 113
13 92 102
14 3 145
15 59 128
16 13 133
17 35 182
18 56 154
19 73 111
20 99 126
21 32 185
22 44 134
23 80 119
24 96 156
25 9 106
26 91 108
27 98 186
28 18 150
29 65 160
30 43 124
31 62 180
32 15 168
33 50 172
34 36 149
35 11 143
36 39 101
37 26 153
38 14 139
39 12 163
40 78 167
41 63 184
42 19 181
43 54 194
44 41 112
45 66 132
46 30 175
47 46 142
48 5 161
49 53 159
50 74 176
51 21 122
52 7 197
53 16 190
54 24 144
55 89 131
56 33 110
57 57 114
58 97 116
59 87 173
60 27 120
61 38 158
62 37 171
63 70 109
64 55 183
65 4 135
66 42 137
67 85 123
68 49 117
69 71 178
70 82 152
71 61 187
72 1 115
73 34 121
74 67 193
75 29 169
76 88 165
77 40 164
78 58 103
79 2 196
80 72 155
81 68 179
82 76 130
83 79 188
84 64 141
85 84 107
86 0 191
87 52 100
88 47 162
89 83 105
90 10 148
91 51 189
92 95 118
93 86 174
94 20 125
95 22 198
96 69 146
97 75 192
98 90 127
99 93 166
100 94 157
