hr_data/kroB200 heuristic results iteration 50:
1 6 155
2 83 194
3 57 120
4 51 146
5 53 111
6 42 127
7 88 109
8 86 108
9 59 154
10 73 125
11 65 186
12 3 191
13 82 118
14 5 136
15 14 150
16 32 199
17 63 101
18 13 147
19 41 129
20 1 134
21 12 161
22 77 152
23 16 159
24 44 143
25 35 103
26 95 192
27 91 170
28 18 142
29 43 176
30 40 153
31 17 190
32 23 162
33 76 115
34 15 195
35 49 185
36 54 164
37 21 113
38 22 167
39 87 132
40 36 144
41 71 198
42 64 130
43 78 177
44 80 179
45 46 175
46 55 171
47 99 156
48 25 106
49 68 173
50 61 160
51 4 145
52 66 151
53 39 107
54 38 165
55 69 137
56 52 133
57 72 180
58 84 149
59 92 100
60 10 126
61 2 123
62 27 187
63 90 178
64 96 112
65 98 140
66 7 183
67 28 114
68 31 172
69 58 138
70 75 163
71 97 158
72 11 184
73 70 117
74 26 105
75 60 139
76 34 182
77 93 102
78 56 104
79 33 119
80 24 124
81 8 181
82 45 168
83 89 122
84 0 141
85 94 121
86 20 157
87 85 128
88 48 135
89 29 166
90 74 174
91 79 188
92 19 189
93 37 116
94 67 193
95 9 131
96 81 196
97 47 197
98 30 148
99 62 169
100 50 110
