hr_data/kroB200 heuristic results iteration 31:
1 41 124
2 1 119
3 12 108
4 77 109
5 16 125
6 44 186
7 35 154
8 95 191
9 91 118
10 18 136
11 43 150
12 40 199
13 17 101
14 23 147
15 76 129
16 15 134
17 13 161
18 63 152
19 81 159
20 32 143
21 14 103
22 5 192
23 3 170
24 82 142
25 86 176
26 59 153
27 73 190
28 65 162
29 93 115
30 56 195
31 33 185
32 6 164
33 83 113
34 57 167
35 51 132
36 53 144
37 42 198
38 88 130
39 49 177
40 54 179
41 21 175
42 22 171
43 87 156
44 36 106
45 71 173
46 64 160
47 78 145
48 80 151
49 46 107
50 55 165
51 99 137
52 25 133
53 68 180
54 61 149
55 4 100
56 66 126
57 39 123
58 38 187
59 69 178
60 52 112
61 72 140
62 84 183
63 92 114
64 10 172
65 2 138
66 27 163
67 90 158
68 96 184
69 98 117
70 7 105
71 28 139
72 31 182
73 58 102
74 75 104
75 97 181
76 11 146
77 70 120
78 26 155
79 60 194
80 34 127
81 8 111
82 24 168
83 45 122
84 89 141
85 0 121
86 94 157
87 20 128
88 85 135
89 48 166
90 29 174
91 74 188
92 79 189
93 19 116
94 37 193
95 67 131
96 9 196
97 62 197
98 30 148
99 47 169
100 50 110
