hr_data/kroB200 heuristic results iteration 45:
1 46 128
2 78 157
3 80 121
4 64 141
5 36 122
6 71 165
7 19 107
8 79 151
9 37 137
10 85 133
11 48 180
12 29 149
13 74 100
14 68 126
15 25 123
16 99 187
17 55 178
18 61 112
19 4 140
20 66 183
21 39 114
22 38 162
23 69 153
24 52 190
25 72 176
26 84 142
27 92 170
28 10 103
29 2 143
30 27 192
31 90 159
32 96 152
33 98 104
34 7 102
35 28 182
36 31 139
37 58 105
38 75 158
39 97 184
40 11 117
41 70 124
42 26 119
43 60 108
44 34 109
45 93 125
46 56 186
47 33 154
48 6 191
49 83 118
50 57 136
51 51 150
52 53 199
53 42 101
54 88 147
55 86 129
56 59 134
57 73 161
58 65 163
59 3 115
60 82 195
61 5 185
62 14 164
63 32 113
64 63 167
65 13 132
66 41 144
67 1 198
68 12 130
69 77 177
70 16 179
71 44 175
72 35 171
73 95 156
74 91 106
75 18 173
76 43 160
77 40 145
78 17 168
79 23 172
80 76 138
81 15 181
82 49 146
83 54 120
84 21 155
85 22 194
86 87 127
87 24 111
88 8 174
89 45 166
90 89 135
91 0 188
92 94 189
93 20 116
94 9 193
95 67 131
96 81 196
97 47 197
98 30 148
99 62 169
100 50 110
