hr_data/kroB200 heuristic results iteration 5:
1 17 163
2 23 158
3 76 184
4 15 117
5 1 105
6 12 139
7 77 182
8 16 102
9 44 104
10 35 152
11 95 159
12 91 143
13 18 103
14 43 192
15 40 170
16 62 142
17 30 176
18 47 153
19 81 190
20 63 162
21 13 115
22 41 195
23 32 185
24 14 164
25 5 113
26 3 167
27 82 132
28 86 144
29 59 198
30 73 130
31 65 177
32 93 179
33 56 175
34 33 171
35 6 156
36 83 106
37 57 173
38 51 160
39 53 145
40 42 151
41 88 107
42 49 165
43 54 137
44 21 133
45 22 180
46 87 149
47 36 100
48 71 126
49 64 123
50 78 187
51 80 178
52 46 112
53 55 140
54 99 183
55 25 114
56 68 172
57 61 138
58 4 168
59 66 122
60 39 141
61 38 121
62 69 157
63 52 128
64 72 135
65 84 166
66 92 174
67 10 188
68 2 189
69 27 116
70 90 193
71 96 131
72 98 196
73 7 197
74 28 148
75 31 169
76 58 110
77 75 181
78 97 124
79 11 119
80 70 108
81 26 109
82 60 125
83 34 186
84 8 154
85 24 191
86 45 118
87 89 136
88 0 150
89 94 199
90 20 101
91 85 147
92 48 129
93 29 134
94 74 161
95 79 120
96 19 146
97 37 111
98 67 127
99 9 155
100 50 194
