hr_data/kroB200 heuristic results iteration 44:
1 85 181
2 48 117
3 29 184
4 74 158
5 79 139
6 19 182
7 37 105
8 45 102
9 24 104
10 8 152
11 26 159
12 60 143
13 34 103
14 93 192
15 56 170
16 33 142
17 6 176
18 83 153
19 57 190
20 51 162
21 53 115
22 42 195
23 88 185
24 86 164
25 59 113
26 73 167
27 65 132
28 3 144
29 82 198
30 5 130
31 14 177
32 32 179
33 63 175
34 13 171
35 41 156
36 1 106
37 12 173
38 77 160
39 16 145
40 44 151
41 35 107
42 95 165
43 91 137
44 18 133
45 43 180
46 40 149
47 17 100
48 23 126
49 76 123
50 15 187
51 49 178
52 54 112
53 21 140
54 22 183
55 87 114
56 36 172
57 71 138
58 64 163
59 78 124
60 80 119
61 46 108
62 55 109
63 99 125
64 25 186
65 68 154
66 61 191
67 4 118
68 66 136
69 39 150
70 38 199
71 69 101
72 52 147
73 72 129
74 84 134
75 92 161
76 10 120
77 2 146
78 27 111
79 90 127
80 96 155
81 98 194
82 7 168
83 28 122
84 31 141
85 58 121
86 75 157
87 97 128
88 11 135
89 70 166
90 0 174
91 94 188
92 89 189
93 20 116
94 9 193
95 67 131
96 81 196
97 47 197
98 30 148
99 62 169
100 50 110
