hr_data/kroB200 heuristic results iteration 57:
1 88 122
2 42 141
3 51 121
4 53 157
5 57 128
6 83 135
7 6 166
8 56 174
9 93 106
10 60 173
11 34 160
12 26 145
13 70 151
14 11 107
15 97 165
16 94 137
17 0 133
18 89 180
19 20 149
20 85 100
21 48 126
22 29 123
23 74 187
24 79 178
25 19 112
26 37 140
27 45 183
28 24 114
29 8 162
30 33 153
31 71 190
32 36 176
33 64 142
34 78 170
35 80 103
36 46 143
37 55 192
38 99 159
39 25 152
40 68 104
41 61 102
42 4 182
43 66 139
44 39 105
45 38 158
46 69 184
47 52 117
48 72 124
49 84 119
50 92 108
51 10 109
52 2 125
53 27 186
54 90 154
55 96 191
56 98 118
57 7 136
58 28 150
59 31 199
60 58 101
61 75 147
62 9 129
63 67 134
64 73 161
65 59 163
66 86 115
67 65 195
68 3 185
69 82 164
70 5 113
71 14 167
72 32 132
73 63 144
74 13 198
75 41 130
76 1 177
77 12 179
78 77 175
79 16 171
80 44 156
81 35 168
82 95 172
83 91 138
84 18 181
85 43 146
86 40 120
87 17 155
88 23 194
89 76 127
90 15 111
91 49 110
92 54 189
93 21 116
94 22 193
95 87 131
96 81 196
97 47 197
98 30 148
99 62 169
100 50 188
