hr_data/kroB200 heuristic results iteration 29:
1 87 172
2 21 138
3 22 190
4 54 153
5 49 162
6 42 115
7 88 176
8 86 142
9 59 170
10 73 103
11 65 143
12 3 192
13 82 159
14 5 152
15 14 104
16 32 102
17 63 182
18 13 139
19 41 105
20 1 158
21 12 184
22 77 117
23 16 124
24 44 119
25 35 108
26 95 109
27 91 125
28 18 186
29 43 154
30 40 191
31 17 118
32 23 136
33 76 150
34 15 199
35 81 101
36 47 147
37 30 129
38 62 134
39 50 161
40 51 163
41 53 195
42 57 185
43 83 164
44 6 113
45 56 167
46 93 132
47 60 144
48 34 198
49 26 130
50 70 177
51 11 179
52 97 175
53 94 171
54 0 156
55 89 106
56 20 173
57 85 160
58 48 145
59 29 151
60 74 107
61 79 165
62 19 137
63 37 133
64 45 180
65 24 149
66 8 100
67 33 126
68 71 123
69 36 187
70 64 178
71 78 112
72 80 140
73 46 183
74 55 114
75 99 168
76 25 122
77 68 141
78 61 121
79 4 157
80 66 128
81 39 135
82 38 166
83 69 174
84 52 188
85 72 189
86 84 116
87 92 193
88 10 131
89 2 196
90 27 197
91 90 148
92 96 169
93 98 110
94 7 181
95 28 146
96 31 120
97 58 155
98 75 194
99 9 127
100 67 111
