hr_data/kroB200 heuristic results iteration 56:
1 1 191
2 12 118
3 77 136
4 16 150
5 44 199
6 35 101
7 95 147
8 91 129
9 18 134
10 43 161
11 40 152
12 17 159
13 23 143
14 76 103
15 15 192
16 41 170
17 13 142
18 63 176
19 81 153
20 32 190
21 14 162
22 5 115
23 3 195
24 82 185
25 86 164
26 59 113
27 73 167
28 65 132
29 93 144
30 56 198
31 33 130
32 6 177
33 83 179
34 57 175
35 51 171
36 53 156
37 42 106
38 88 173
39 49 160
40 54 145
41 21 151
42 22 107
43 87 165
44 36 137
45 71 133
46 64 180
47 78 149
48 80 100
49 46 126
50 55 123
51 99 187
52 25 178
53 68 112
54 61 140
55 4 183
56 66 114
57 39 172
58 38 138
59 69 163
60 52 158
61 72 184
62 84 117
63 92 105
64 10 139
65 2 182
66 27 102
67 90 104
68 96 154
69 98 125
70 7 186
71 28 108
72 31 109
73 58 119
74 75 124
75 97 181
76 11 146
77 70 120
78 26 155
79 60 194
80 34 127
81 8 111
82 24 168
83 45 122
84 89 141
85 0 121
86 94 157
87 20 128
88 85 135
89 48 166
90 29 174
91 74 188
92 79 189
93 19 116
94 37 193
95 67 131
96 9 196
97 62 197
98 30 148
99 47 169
100 50 110
