hr_data/kroB200 heuristic results iteration 60:
1 14 158
2 32 184
3 5 117
4 3 105
5 82 139
6 63 182
7 13 102
8 41 104
9 1 152
10 12 159
11 77 143
12 16 103
13 44 192
14 35 170
15 95 142
16 91 176
17 18 153
18 43 190
19 40 162
20 17 115
21 23 195
22 76 185
23 15 164
24 49 113
25 42 167
26 88 132
27 86 144
28 59 198
29 73 130
30 65 177
31 93 179
32 56 175
33 33 171
34 6 156
35 83 106
36 57 173
37 51 160
38 53 145
39 71 151
40 36 107
41 64 165
42 78 137
43 80 133
44 46 180
45 55 149
46 99 100
47 25 126
48 68 123
49 61 187
50 4 178
51 66 112
52 39 140
53 38 183
54 69 114
55 52 172
56 72 138
57 84 163
58 92 124
59 10 119
60 2 108
61 27 109
62 90 125
63 96 186
64 98 154
65 7 191
66 28 118
67 31 136
68 58 150
69 75 199
70 97 101
71 11 147
72 70 129
73 26 134
74 60 161
75 34 181
76 8 146
77 24 120
78 45 155
79 89 194
80 0 127
81 94 111
82 20 168
83 85 122
84 48 141
85 29 121
86 74 157
87 79 128
88 19 135
89 37 166
90 67 174
91 9 188
92 87 189
93 21 116
94 22 193
95 54 131
96 81 196
97 47 197
98 30 148
99 62 169
100 50 110
