hr_data/kroB200 heuristic results iteration 41:
1 89 165
2 0 107
3 94 151
4 97 137
5 11 133
6 70 180
7 26 149
8 60 100
9 34 126
10 93 123
11 56 187
12 33 178
13 6 112
14 83 140
15 57 183
16 51 114
17 53 162
18 42 153
19 88 190
20 86 176
21 59 142
22 73 170
23 65 103
24 3 143
25 82 192
26 5 159
27 14 152
28 32 104
29 63 102
30 13 182
31 41 139
32 1 105
33 12 158
34 77 184
35 16 117
36 44 124
37 35 119
38 95 108
39 91 109
40 18 125
41 43 186
42 40 154
43 17 191
44 23 118
45 76 136
46 15 150
47 49 199
48 54 101
49 21 147
50 22 129
51 87 134
52 36 161
53 71 163
54 64 115
55 78 195
56 80 185
57 46 164
58 55 113
59 99 167
60 25 132
61 68 144
62 61 198
63 4 130
64 66 177
65 39 179
66 38 175
67 69 171
68 52 156
69 72 106
70 84 173
71 92 160
72 10 145
73 2 168
74 27 172
75 90 138
76 96 181
77 98 146
78 7 120
79 28 155
80 31 194
81 58 127
82 75 111
83 20 174
84 85 166
85 48 135
86 29 128
87 74 157
88 79 121
89 19 141
90 37 122
91 45 110
92 24 189
93 8 116
94 67 193
95 9 131
96 81 196
97 47 197
98 30 148
99 62 169
100 50 188
