hr_data/kroB200 heuristic results iteration 46:
1 85 150
2 48 136
3 29 118
4 74 199
5 79 101
6 19 147
7 37 191
8 45 154
9 24 125
10 8 186
11 26 108
12 60 109
13 34 119
14 93 124
15 56 117
16 33 184
17 6 158
18 83 139
19 57 182
20 51 105
21 53 102
22 42 104
23 88 152
24 86 159
25 59 143
26 73 103
27 65 192
28 3 170
29 82 142
30 5 176
31 14 153
32 32 190
33 63 162
34 13 115
35 41 195
36 1 185
37 12 164
38 77 113
39 16 167
40 44 132
41 35 144
42 95 198
43 91 130
44 18 177
45 43 179
46 40 175
47 17 171
48 23 156
49 76 106
50 15 173
51 49 160
52 54 145
53 21 151
54 22 107
55 87 165
56 36 137
57 71 133
58 64 180
59 78 149
60 80 100
61 46 126
62 55 123
63 99 187
64 25 178
65 68 112
66 61 140
67 4 183
68 66 114
69 39 172
70 38 138
71 69 163
72 52 181
73 72 146
74 84 120
75 92 155
76 10 194
77 2 127
78 27 111
79 90 161
80 96 134
81 98 129
82 7 168
83 28 122
84 31 141
85 58 121
86 75 157
87 97 128
88 11 135
89 70 166
90 0 174
91 94 188
92 89 189
93 20 116
94 9 193
95 67 131
96 81 196
97 47 197
98 30 148
99 62 169
100 50 110
