hr_data/kroB200 heuristic results iteration 99:
1 99 191
2 55 118
3 25 136
4 68 150
5 61 199
6 4 101
7 66 147
8 39 129
9 38 134
10 69 161
11 52 152
12 72 159
13 84 143
14 92 103
15 10 192
16 2 170
17 27 142
18 90 176
19 96 153
20 98 190
21 7 162
22 28 115
23 31 195
24 58 185
25 75 164
26 97 113
27 11 167
28 70 132
29 26 144
30 60 198
31 34 130
32 93 177
33 56 179
34 33 175
35 6 171
36 83 156
37 57 106
38 51 173
39 53 160
40 42 145
41 88 151
42 86 107
43 59 165
44 73 137
45 65 133
46 3 180
47 82 149
48 5 100
49 14 126
50 32 123
51 63 187
52 13 178
53 41 112
54 1 140
55 12 183
56 77 114
57 16 172
58 44 138
59 35 163
60 95 158
61 91 184
62 18 117
63 43 105
64 40 139
65 17 182
66 23 102
67 76 104
68 15 154
69 49 125
70 54 186
71 21 108
72 22 109
73 87 119
74 36 124
75 71 181
76 64 146
77 78 120
78 80 155
79 46 194
80 74 127
81 29 111
82 79 168
83 19 122
84 37 141
85 85 121
86 48 157
87 67 128
88 9 135
89 20 166
90 89 174
91 0 188
92 94 189
93 45 116
94 24 193
95 8 131
96 81 196
97 47 197
98 30 148
99 62 169
100 50 110
