hr_data/kroB200 heuristic results iteration 40:
1 68 198
2 25 130
3 99 177
4 55 179
5 61 175
6 4 171
7 66 156
8 39 144
9 38 132
10 69 167
11 52 113
12 72 164
13 84 185
14 92 195
15 10 115
16 2 162
17 27 153
18 90 190
19 96 176
20 98 142
21 7 170
22 28 103
23 31 143
24 58 192
25 75 159
26 97 152
27 11 104
28 70 102
29 26 182
30 60 139
31 34 105
32 93 158
33 56 184
34 33 117
35 6 124
36 83 119
37 57 108
38 51 109
39 53 125
40 42 186
41 88 154
42 86 191
43 59 118
44 73 136
45 65 150
46 3 199
47 82 101
48 5 147
49 14 129
50 32 134
51 63 161
52 13 163
53 41 138
54 1 172
55 12 114
56 77 183
57 16 140
58 44 123
59 35 126
60 95 187
61 91 178
62 18 112
63 43 100
64 40 149
65 17 133
66 23 180
67 76 137
68 15 165
69 49 107
70 54 151
71 21 145
72 22 160
73 87 173
74 36 106
75 71 174
76 64 166
77 78 135
78 80 128
79 46 157
80 74 121
81 29 141
82 79 122
83 19 110
84 37 189
85 85 116
86 48 193
87 67 131
88 9 196
89 20 197
90 89 148
91 0 169
92 94 188
93 45 168
94 24 181
95 8 146
96 81 120
97 47 155
98 30 194
99 62 127
100 50 111
