hr_data/kroB200 heuristic results iteration 84:
1 0 179
2 94 175
3 97 177
4 11 130
5 70 198
6 26 144
7 60 132
8 34 167
9 93 113
10 56 164
11 33 185
12 6 195
13 83 115
14 57 162
15 51 153
16 53 190
17 42 176
18 88 142
19 86 170
20 59 103
21 73 143
22 65 192
23 3 159
24 82 152
25 5 104
26 14 102
27 32 182
28 63 139
29 13 105
30 41 158
31 1 184
32 12 117
33 77 124
34 16 119
35 44 108
36 35 109
37 95 125
38 91 186
39 18 154
40 43 191
41 40 118
42 17 136
43 23 150
44 76 199
45 15 101
46 49 147
47 54 129
48 21 134
49 22 161
50 87 163
51 36 138
52 71 172
53 64 114
54 78 183
55 80 140
56 46 123
57 55 126
58 99 187
59 25 178
60 68 112
61 61 100
62 4 149
63 66 133
64 39 180
65 38 137
66 69 165
67 52 107
68 72 151
69 84 145
70 92 160
71 10 173
72 2 106
73 27 174
74 90 166
75 96 135
76 98 128
77 7 157
78 28 121
79 31 141
80 58 122
81 75 110
82 89 189
83 20 116
84 85 193
85 48 131
86 29 196
87 74 197
88 79 148
89 19 169
90 37 188
91 45 168
92 24 171
93 8 156
94 67 181
95 9 146
96 81 120
97 47 155
98 30 194
99 62 127
100 50 111
