hr_data/kroB200 heuristic results iteration 23:
1 50 122
2 47 141
3 30 121
4 62 157
5 12 128
6 77 135
7 16 166
8 44 174
9 35 106
10 95 173
11 91 160
12 18 145
13 43 151
14 40 107
15 17 165
16 23 137
17 76 133
18 15 180
19 1 149
20 41 100
21 13 126
22 63 123
23 81 187
24 32 178
25 14 112
26 5 140
27 3 183
28 82 114
29 86 162
30 59 153
31 73 190
32 65 176
33 93 142
34 56 170
35 33 103
36 6 143
37 83 192
38 57 159
39 51 152
40 53 104
41 42 102
42 88 182
43 49 139
44 54 105
45 21 158
46 22 184
47 87 117
48 36 124
49 71 119
50 64 108
51 78 109
52 80 125
53 46 186
54 55 154
55 99 191
56 25 118
57 68 136
58 61 150
59 4 199
60 66 101
61 39 147
62 38 129
63 69 134
64 52 161
65 72 163
66 84 115
67 92 195
68 10 185
69 2 164
70 27 113
71 90 167
72 96 132
73 98 144
74 7 198
75 28 130
76 31 177
77 58 179
78 75 175
79 97 171
80 11 156
81 70 168
82 26 172
83 60 138
84 34 181
85 8 146
86 24 120
87 45 155
88 89 194
89 0 127
90 94 111
91 20 110
92 85 189
93 48 116
94 29 193
95 74 131
96 79 196
97 19 197
98 37 148
99 67 169
100 9 188
