hr_data/kroB200 heuristic results iteration 98:
1 34 126
2 60 123
3 26 187
4 70 178
5 11 112
6 97 100
7 94 149
8 0 133
9 89 180
10 20 137
11 85 165
12 48 107
13 29 151
14 74 145
15 79 160
16 19 173
17 37 106
18 45 174
19 24 166
20 8 135
21 33 128
22 56 157
23 93 121
24 73 141
25 59 122
26 86 110
27 88 189
28 42 116
29 51 193
30 53 131
31 57 196
32 83 197
33 6 148
34 71 169
35 36 188
36 64 183
37 78 140
38 80 172
39 46 138
40 55 190
41 99 153
42 25 162
43 68 115
44 61 176
45 4 142
46 66 170
47 39 103
48 38 143
49 69 192
50 52 159
51 72 152
52 84 104
53 92 102
54 10 182
55 2 139
56 27 105
57 90 158
58 96 184
59 98 117
60 7 124
61 28 119
62 31 108
63 58 109
64 75 125
65 9 186
66 67 154
67 87 191
68 21 118
69 22 136
70 54 150
71 49 199
72 76 101
73 23 147
74 17 129
75 44 134
76 35 161
77 16 163
78 40 195
79 91 185
80 18 164
81 95 113
82 43 167
83 77 132
84 12 144
85 1 198
86 41 130
87 13 177
88 63 179
89 81 175
90 32 171
91 14 156
92 5 168
93 3 114
94 82 181
95 65 146
96 15 120
97 62 155
98 30 194
99 47 127
100 50 111
