hr_data/kroB200 heuristic results iteration 80:
1 62 107
2 30 151
3 47 165
4 81 137
5 63 133
6 13 180
7 41 149
8 1 100
9 12 126
10 77 123
11 16 187
12 44 178
13 35 112
14 95 140
15 91 183
16 18 114
17 43 162
18 40 153
19 17 190
20 23 176
21 76 142
22 15 170
23 49 103
24 42 143
25 88 192
26 86 159
27 59 152
28 73 104
29 65 102
30 3 182
31 82 139
32 5 105
33 14 158
34 32 184
35 50 117
36 54 124
37 21 119
38 22 108
39 87 109
40 53 125
41 51 186
42 57 154
43 83 191
44 6 118
45 56 136
46 93 150
47 60 199
48 34 101
49 26 147
50 70 129
51 11 134
52 97 161
53 94 163
54 0 115
55 89 195
56 20 185
57 85 164
58 48 113
59 29 167
60 74 132
61 79 144
62 19 198
63 37 130
64 45 177
65 24 179
66 8 175
67 33 171
68 71 156
69 36 106
70 64 173
71 78 160
72 80 145
73 46 168
74 55 172
75 99 138
76 25 181
77 68 146
78 61 120
79 4 155
80 66 194
81 39 127
82 38 111
83 69 174
84 52 166
85 72 135
86 84 128
87 92 157
88 10 121
89 2 141
90 27 122
91 90 110
92 96 189
93 98 116
94 7 193
95 28 131
96 31 196
97 58 197
98 75 148
99 9 169
100 67 188
