hr_data/kroB200 heuristic results iteration 72:
1 45 120
2 24 146
3 8 111
4 26 127
5 60 155
6 34 194
7 93 109
8 56 108
9 33 154
10 6 125
11 83 186
12 57 191
13 51 118
14 53 136
15 42 150
16 88 199
17 86 101
18 59 147
19 73 129
20 65 134
21 3 161
22 82 152
23 5 159
24 14 143
25 32 103
26 63 192
27 13 170
28 41 142
29 1 176
30 12 153
31 77 190
32 16 162
33 44 115
34 35 195
35 95 185
36 91 164
37 18 113
38 43 167
39 40 132
40 17 144
41 23 198
42 76 130
43 15 177
44 49 179
45 54 175
46 21 171
47 22 156
48 87 106
49 36 173
50 71 160
51 64 145
52 78 151
53 80 107
54 46 165
55 55 137
56 99 133
57 25 180
58 68 149
59 61 100
60 4 126
61 66 123
62 39 187
63 38 178
64 69 112
65 52 140
66 72 183
67 84 114
68 92 172
69 10 138
70 2 163
71 27 158
72 90 184
73 96 117
74 98 105
75 7 139
76 28 182
77 31 102
78 58 104
79 75 119
80 97 124
81 11 181
82 70 168
83 0 122
84 94 141
85 89 121
86 20 157
87 85 128
88 48 135
89 29 166
90 74 174
91 79 188
92 19 189
93 37 116
94 67 193
95 9 131
96 81 196
97 47 197
98 30 148
99 62 169
100 50 110
