hr_data/kroB200 heuristic results iteration 13:
1 67 132
2 9 167
3 85 113
4 48 164
5 29 185
6 74 195
7 79 115
8 19 162
9 37 153
10 45 190
11 24 176
12 8 142
13 26 170
14 60 103
15 34 143
16 93 192
17 56 159
18 33 152
19 6 104
20 83 102
21 57 182
22 51 139
23 53 105
24 42 158
25 88 184
26 86 117
27 59 124
28 73 119
29 65 108
30 3 109
31 82 125
32 5 186
33 14 154
34 32 191
35 63 118
36 13 136
37 41 150
38 1 199
39 12 101
40 77 147
41 16 129
42 44 134
43 35 161
44 95 163
45 91 138
46 18 172
47 43 114
48 40 183
49 17 140
50 23 123
51 76 126
52 15 187
53 49 178
54 54 112
55 21 100
56 22 149
57 87 133
58 36 180
59 71 137
60 64 165
61 78 107
62 80 151
63 46 145
64 55 160
65 99 173
66 25 106
67 68 174
68 61 166
69 4 135
70 66 128
71 39 157
72 38 121
73 69 141
74 52 122
75 72 110
76 84 189
77 92 116
78 10 193
79 2 131
80 27 196
81 90 197
82 96 148
83 98 169
84 7 188
85 28 168
86 31 179
87 58 175
88 75 177
89 97 130
90 11 198
91 70 144
92 0 156
93 94 171
94 89 181
95 20 146
96 81 120
97 47 155
98 30 194
99 62 127
100 50 111
