hr_data/kroB200 heuristic results iteration 28:
1 40 116
2 16 189
3 44 188
4 35 110
5 95 193
6 91 131
7 18 196
8 43 197
9 17 148
10 23 169
11 76 121
12 15 141
13 1 122
14 12 165
15 77 107
16 62 151
17 30 137
18 47 133
19 81 180
20 63 149
21 13 100
22 41 126
23 32 123
24 14 187
25 5 178
26 3 112
27 82 140
28 86 183
29 59 114
30 73 162
31 65 153
32 93 190
33 56 176
34 33 142
35 6 170
36 83 103
37 57 143
38 51 192
39 53 159
40 42 152
41 88 104
42 49 102
43 54 182
44 21 139
45 22 105
46 87 158
47 36 184
48 71 117
49 64 124
50 78 119
51 80 108
52 46 109
53 55 125
54 99 186
55 25 154
56 68 191
57 61 118
58 4 136
59 66 150
60 39 199
61 38 101
62 69 147
63 52 129
64 72 134
65 84 161
66 92 163
67 10 115
68 2 195
69 27 185
70 90 164
71 96 113
72 98 167
73 7 132
74 28 144
75 31 198
76 58 130
77 75 177
78 97 179
79 11 175
80 70 171
81 26 156
82 60 106
83 34 173
84 8 160
85 24 145
86 45 168
87 89 172
88 0 138
89 94 181
90 20 146
91 85 120
92 48 155
93 29 194
94 74 127
95 79 111
96 19 174
97 37 166
98 67 135
99 9 128
100 50 157
