hr_data/kroB200 heuristic results iteration 25:
1 65 117
2 73 184
3 59 158
4 86 139
5 88 182
6 42 105
7 51 102
8 53 104
9 57 152
10 83 159
11 6 143
12 56 103
13 93 192
14 60 170
15 34 142
16 26 176
17 70 153
18 11 190
19 97 162
20 94 115
21 0 195
22 89 185
23 20 164
24 85 113
25 48 167
26 29 132
27 74 144
28 79 198
29 19 130
30 37 177
31 45 179
32 24 175
33 8 171
34 33 156
35 71 106
36 36 173
37 64 160
38 78 145
39 80 151
40 46 107
41 55 165
42 99 137
43 25 133
44 68 180
45 61 149
46 4 100
47 66 126
48 39 123
49 38 187
50 69 178
51 52 112
52 72 140
53 84 183
54 92 114
55 10 172
56 2 138
57 27 163
58 90 124
59 96 119
60 98 108
61 7 109
62 28 125
63 31 186
64 58 154
65 75 191
66 9 118
67 67 136
68 87 150
69 21 199
70 22 101
71 54 147
72 49 129
73 76 134
74 23 161
75 17 181
76 44 146
77 35 120
78 16 155
79 40 194
80 91 127
81 18 111
82 95 168
83 43 122
84 77 141
85 12 121
86 1 157
87 41 128
88 13 135
89 63 166
90 81 174
91 32 188
92 14 189
93 5 116
94 3 193
95 82 131
96 15 196
97 62 197
98 30 148
99 47 169
100 50 110
