hr_data/kroB200 heuristic results iteration 62:
1 1 157
2 12 128
3 77 135
4 16 166
5 44 174
6 35 106
7 95 173
8 91 160
9 18 145
10 43 151
11 40 107
12 17 165
13 23 137
14 76 133
15 15 180
16 41 149
17 13 100
18 63 126
19 81 123
20 32 187
21 14 178
22 5 112
23 3 140
24 82 183
25 86 114
26 59 162
27 73 153
28 65 190
29 93 176
30 56 142
31 33 170
32 6 103
33 83 143
34 57 192
35 51 159
36 53 152
37 42 104
38 88 102
39 49 182
40 54 139
41 21 105
42 22 158
43 87 184
44 36 117
45 71 124
46 64 119
47 78 108
48 80 109
49 46 125
50 55 186
51 99 154
52 25 191
53 68 118
54 61 136
55 4 150
56 66 199
57 39 101
58 38 147
59 69 129
60 52 134
61 72 161
62 84 163
63 92 115
64 10 195
65 2 185
66 27 164
67 90 113
68 96 167
69 98 132
70 7 144
71 28 198
72 31 130
73 58 177
74 75 179
75 97 175
76 11 171
77 70 156
78 26 168
79 60 172
80 34 138
81 8 181
82 24 146
83 45 120
84 89 155
85 0 194
86 94 127
87 20 111
88 85 122
89 48 141
90 29 121
91 74 169
92 79 148
93 19 197
94 37 116
95 67 189
96 9 188
97 62 110
98 30 193
99 47 131
100 50 196
