hr_data/kroB200 heuristic results iteration 37:
1 14 191
2 32 118
3 5 136
4 3 150
5 82 199
6 63 101
7 13 147
8 41 129
9 1 134
10 12 161
11 77 152
12 16 159
13 44 143
14 35 103
15 95 192
16 91 170
17 18 142
18 43 176
19 40 153
20 17 190
21 23 162
22 76 115
23 15 195
24 49 185
25 42 164
26 88 113
27 86 167
28 59 132
29 73 144
30 65 198
31 93 130
32 56 177
33 33 179
34 6 175
35 83 171
36 57 156
37 51 106
38 53 173
39 71 160
40 36 145
41 64 151
42 78 107
43 80 165
44 46 137
45 55 133
46 99 180
47 25 149
48 68 100
49 61 126
50 4 123
51 66 187
52 39 178
53 38 112
54 69 140
55 52 183
56 72 114
57 84 172
58 92 138
59 10 163
60 2 158
61 27 184
62 90 117
63 96 105
64 98 139
65 7 182
66 28 102
67 31 104
68 58 154
69 75 125
70 97 186
71 11 108
72 70 109
73 26 119
74 60 124
75 34 181
76 8 146
77 24 120
78 45 155
79 89 194
80 0 127
81 94 111
82 20 168
83 85 122
84 48 141
85 29 121
86 74 157
87 79 128
88 19 135
89 37 166
90 67 174
91 9 188
92 87 189
93 21 116
94 22 193
95 54 131
96 81 196
97 47 197
98 30 148
99 62 169
100 50 110
