hr_data/kroB200 heuristic results iteration 12:
1 58 148
2 75 197
3 98 169
4 7 188
5 28 189
6 31 116
7 97 193
8 11 131
9 70 196
10 26 110
11 60 137
12 34 165
13 93 107
14 56 151
15 33 145
16 6 160
17 83 173
18 57 106
19 51 174
20 53 166
21 42 135
22 88 128
23 86 157
24 59 121
25 73 141
26 65 122
27 3 133
28 82 180
29 5 149
30 14 100
31 32 126
32 63 123
33 13 187
34 41 178
35 1 112
36 12 140
37 77 183
38 16 114
39 44 162
40 35 153
41 95 190
42 91 176
43 18 142
44 43 170
45 40 103
46 17 143
47 23 192
48 76 159
49 15 152
50 49 104
51 54 102
52 21 182
53 22 139
54 87 105
55 36 158
56 71 184
57 64 117
58 78 124
59 80 119
60 46 108
61 55 109
62 99 125
63 25 186
64 68 154
65 61 191
66 4 118
67 66 136
68 39 150
69 38 199
70 69 101
71 52 147
72 72 129
73 84 134
74 92 161
75 10 163
76 2 115
77 27 195
78 90 185
79 96 164
80 94 113
81 0 167
82 89 132
83 20 144
84 85 198
85 48 130
86 29 177
87 74 179
88 79 175
89 19 171
90 37 156
91 45 168
92 24 172
93 8 138
94 67 181
95 9 146
96 81 120
97 47 155
98 30 194
99 62 127
100 50 111
