hr_data/kroB200 heuristic results iteration 17:
1 24 187
2 8 123
3 45 126
4 26 112
5 60 178
6 34 140
7 93 183
8 56 114
9 33 162
10 6 153
11 83 190
12 57 176
13 51 142
14 53 170
15 42 103
16 88 143
17 86 192
18 59 159
19 73 152
20 65 104
21 3 102
22 82 182
23 5 139
24 14 105
25 32 158
26 63 184
27 13 117
28 41 124
29 1 119
30 12 108
31 77 109
32 16 125
33 44 186
34 35 154
35 95 191
36 91 118
37 18 136
38 43 150
39 40 199
40 17 101
41 23 147
42 76 129
43 15 134
44 49 161
45 54 163
46 21 115
47 22 195
48 87 185
49 36 164
50 71 113
51 64 167
52 78 132
53 80 144
54 46 198
55 55 130
56 99 177
57 25 179
58 68 175
59 61 171
60 4 156
61 66 106
62 39 173
63 38 160
64 69 145
65 52 151
66 72 107
67 84 165
68 92 137
69 10 133
70 2 180
71 27 149
72 90 100
73 96 193
74 98 131
75 7 196
76 28 116
77 31 189
78 58 188
79 75 110
80 97 169
81 11 148
82 70 197
83 0 121
84 94 141
85 89 122
86 20 157
87 85 128
88 48 135
89 29 166
90 74 174
91 79 168
92 19 172
93 37 138
94 67 181
95 9 146
96 81 120
97 47 155
98 30 194
99 62 127
100 50 111
