hr_data/kroB200 heuristic results iteration 34:
1 78 126
2 80 123
3 46 187
4 64 178
5 36 112
6 71 100
7 19 149
8 79 133
9 37 180
10 85 137
11 48 165
12 29 107
13 74 151
14 68 145
15 25 160
16 99 173
17 55 106
18 61 174
19 4 166
20 66 135
21 39 128
22 38 157
23 69 121
24 52 141
25 72 122
26 84 110
27 92 189
28 10 116
29 2 193
30 27 131
31 90 196
32 96 197
33 98 148
34 7 169
35 28 188
36 31 183
37 58 140
38 75 172
39 97 138
40 11 190
41 70 153
42 26 162
43 60 115
44 34 176
45 93 142
46 56 170
47 33 103
48 6 143
49 83 192
50 57 159
51 51 152
52 53 104
53 42 102
54 88 182
55 86 139
56 59 105
57 73 158
58 65 184
59 3 117
60 82 124
61 5 119
62 14 108
63 32 109
64 63 125
65 13 186
66 41 154
67 1 191
68 12 118
69 77 136
70 16 150
71 44 199
72 35 101
73 95 147
74 91 129
75 18 134
76 43 161
77 40 163
78 17 195
79 23 185
80 76 164
81 15 113
82 49 167
83 54 132
84 21 144
85 22 198
86 87 130
87 24 177
88 8 179
89 45 175
90 89 171
91 0 156
92 94 168
93 20 114
94 9 181
95 67 146
96 81 120
97 47 155
98 30 194
99 62 127
100 50 111
