hr_data/kroB200 heuristic results iteration 26:
1 82 115
2 3 162
3 5 153
4 14 190
5 32 176
6 63 142
7 13 170
8 41 103
9 1 143
10 12 192
11 77 159
12 16 152
13 44 104
14 35 102
15 95 182
16 91 139
17 18 105
18 43 158
19 40 184
20 17 117
21 23 124
22 76 119
23 15 108
24 49 109
25 42 125
26 88 186
27 86 154
28 59 191
29 73 118
30 65 136
31 93 150
32 56 199
33 33 101
34 6 147
35 83 129
36 57 134
37 51 161
38 53 163
39 71 195
40 36 185
41 64 164
42 78 113
43 80 167
44 46 132
45 55 144
46 99 198
47 25 130
48 68 177
49 61 179
50 4 175
51 66 171
52 39 156
53 38 106
54 69 173
55 52 160
56 72 145
57 84 151
58 92 107
59 10 165
60 2 137
61 27 133
62 90 180
63 96 149
64 98 100
65 7 126
66 28 123
67 31 187
68 58 178
69 75 112
70 97 140
71 11 183
72 70 114
73 26 172
74 60 138
75 34 168
76 8 122
77 24 141
78 45 121
79 89 157
80 0 128
81 94 135
82 20 166
83 85 174
84 48 188
85 29 189
86 74 116
87 79 193
88 19 131
89 37 196
90 67 197
91 9 148
92 87 169
93 21 110
94 22 181
95 54 146
96 81 120
97 47 155
98 30 194
99 62 127
100 50 111
