hr_data/kroB200 heuristic results iteration 91:
1 70 140
2 11 183
3 97 123
4 94 126
5 0 187
6 89 178
7 20 112
8 85 100
9 48 149
10 29 133
11 74 180
12 79 137
13 19 165
14 37 107
15 45 151
16 24 145
17 8 160
18 26 173
19 60 106
20 34 174
21 93 166
22 56 135
23 33 128
24 6 157
25 83 121
26 57 141
27 51 122
28 53 110
29 42 189
30 88 116
31 86 193
32 59 131
33 73 196
34 65 197
35 3 148
36 82 169
37 5 188
38 14 168
39 32 114
40 63 162
41 13 153
42 41 190
43 1 176
44 12 142
45 77 170
46 16 103
47 44 143
48 35 192
49 95 159
50 91 152
51 18 104
52 43 102
53 40 182
54 17 139
55 23 105
56 76 158
57 15 184
58 49 117
59 54 124
60 21 119
61 22 108
62 87 109
63 36 125
64 71 186
65 64 154
66 78 191
67 80 118
68 46 136
69 55 150
70 99 199
71 25 101
72 68 147
73 61 129
74 4 134
75 66 161
76 39 163
77 38 115
78 69 195
79 52 185
80 72 164
81 84 113
82 92 167
83 10 132
84 2 144
85 27 198
86 90 130
87 96 177
88 98 179
89 7 175
90 28 171
91 31 156
92 58 181
93 75 146
94 9 120
95 67 155
96 81 194
97 47 127
98 30 111
99 62 138
100 50 172
