hr_data/kroB200 heuristic results iteration 67:
1 36 138
2 71 172
3 64 114
4 78 162
5 80 153
6 46 190
7 55 176
8 99 142
9 25 170
10 68 103
11 61 143
12 4 192
13 66 159
14 39 152
15 38 104
16 69 102
17 52 182
18 72 139
19 84 105
20 92 158
21 10 184
22 2 117
23 27 124
24 90 119
25 96 108
26 98 109
27 7 125
28 28 186
29 31 154
30 58 191
31 75 118
32 97 136
33 11 150
34 70 199
35 26 101
36 60 147
37 34 129
38 93 134
39 56 161
40 33 163
41 6 115
42 83 195
43 57 185
44 51 164
45 53 113
46 42 167
47 88 132
48 86 144
49 59 198
50 73 130
51 65 177
52 3 179
53 82 175
54 5 171
55 14 156
56 32 106
57 63 173
58 13 160
59 41 145
60 1 151
61 12 107
62 77 165
63 16 137
64 44 133
65 35 180
66 95 149
67 91 100
68 18 126
69 43 123
70 40 187
71 17 178
72 23 112
73 76 140
74 15 183
75 49 168
76 54 122
77 21 141
78 22 121
79 87 157
80 79 128
81 19 135
82 37 166
83 85 174
84 48 188
85 29 189
86 74 116
87 67 193
88 9 131
89 20 196
90 89 197
91 0 148
92 94 169
93 45 110
94 24 181
95 8 146
96 81 120
97 47 155
98 30 194
99 62 127
100 50 111
