hr_data/kroB200 heuristic results iteration 22:
1 63 105
2 13 139
3 41 182
4 1 102
5 12 158
6 77 184
7 16 117
8 44 124
9 35 119
10 95 108
11 91 109
12 18 125
13 43 186
14 40 154
15 17 191
16 23 118
17 76 136
18 15 150
19 49 199
20 42 101
21 88 147
22 86 129
23 59 134
24 73 161
25 65 152
26 3 159
27 82 143
28 5 103
29 14 192
30 32 170
31 81 142
32 47 176
33 30 153
34 62 190
35 50 162
36 54 115
37 21 195
38 22 185
39 87 164
40 53 113
41 51 167
42 57 132
43 83 144
44 6 198
45 56 130
46 93 177
47 60 179
48 34 175
49 26 171
50 70 156
51 11 106
52 97 173
53 94 160
54 0 145
55 89 151
56 20 107
57 85 165
58 48 137
59 29 133
60 74 180
61 79 149
62 19 100
63 37 126
64 45 123
65 24 187
66 8 178
67 33 112
68 71 140
69 36 183
70 64 114
71 78 172
72 80 138
73 46 163
74 55 104
75 99 181
76 25 146
77 68 120
78 61 155
79 4 194
80 66 127
81 39 111
82 38 168
83 69 122
84 52 141
85 72 121
86 84 157
87 92 128
88 10 135
89 2 166
90 27 174
91 90 188
92 96 189
93 98 116
94 7 193
95 28 131
96 31 196
97 58 197
98 75 148
99 9 169
100 67 110
