hr_data/kroB200 heuristic results iteration 49:
1 7 190
2 98 153
3 75 162
4 58 115
5 31 176
6 28 142
7 96 170
8 90 103
9 27 143
10 2 192
11 10 159
12 92 152
13 84 104
14 72 102
15 52 182
16 69 139
17 38 105
18 39 158
19 66 184
20 4 117
21 61 124
22 25 119
23 99 108
24 55 109
25 68 125
26 74 186
27 29 154
28 79 191
29 19 118
30 37 136
31 85 150
32 48 199
33 67 101
34 9 147
35 20 129
36 89 134
37 0 161
38 94 163
39 97 195
40 11 185
41 70 164
42 26 113
43 60 167
44 34 132
45 93 144
46 56 198
47 33 130
48 6 177
49 83 179
50 57 175
51 51 171
52 53 156
53 42 106
54 88 173
55 86 160
56 59 145
57 73 151
58 65 107
59 3 165
60 82 137
61 5 133
62 14 180
63 32 149
64 63 100
65 13 126
66 41 123
67 1 187
68 12 178
69 77 112
70 16 140
71 44 183
72 35 114
73 95 172
74 91 138
75 18 168
76 43 122
77 40 141
78 17 121
79 23 157
80 76 128
81 15 135
82 49 166
83 54 174
84 21 188
85 22 189
86 87 116
87 36 193
88 71 131
89 64 196
90 78 197
91 80 148
92 46 169
93 45 110
94 24 181
95 8 146
96 81 120
97 47 155
98 30 194
99 62 127
100 50 111
