hr_data/kroB200 heuristic results iteration 73:
1 32 180
2 14 133
3 5 137
4 3 165
5 82 107
6 63 151
7 13 145
8 41 160
9 1 173
10 12 106
11 77 174
12 16 166
13 44 135
14 35 128
15 95 157
16 91 121
17 18 141
18 43 122
19 40 110
20 17 189
21 23 116
22 76 193
23 15 131
24 49 196
25 42 197
26 88 148
27 86 169
28 59 188
29 73 149
30 65 100
31 93 126
32 56 123
33 33 187
34 6 178
35 83 112
36 57 140
37 51 183
38 53 114
39 71 162
40 36 153
41 64 190
42 78 176
43 80 142
44 46 170
45 55 103
46 99 143
47 25 192
48 68 159
49 61 152
50 4 104
51 66 102
52 39 182
53 38 139
54 69 105
55 52 158
56 72 184
57 84 117
58 92 124
59 10 119
60 2 108
61 27 109
62 90 125
63 96 186
64 98 154
65 7 191
66 28 118
67 31 136
68 58 150
69 75 199
70 97 101
71 11 147
72 70 129
73 26 134
74 60 161
75 34 163
76 8 115
77 24 195
78 45 185
79 89 164
80 0 113
81 94 167
82 20 132
83 85 144
84 48 198
85 29 130
86 74 177
87 79 179
88 19 175
89 37 171
90 67 156
91 9 168
92 87 172
93 21 138
94 22 181
95 54 146
96 81 120
97 47 155
98 30 194
99 62 127
100 50 111
