hr_data/kroB200 heuristic results iteration 63:
1 90 125
2 27 186
3 96 154
4 98 108
5 7 109
6 28 119
7 31 124
8 58 117
9 75 184
10 97 158
11 11 139
12 70 182
13 26 105
14 60 102
15 34 104
16 93 152
17 56 159
18 33 143
19 6 103
20 83 192
21 57 170
22 51 142
23 53 176
24 42 153
25 88 190
26 86 162
27 59 115
28 73 195
29 65 185
30 3 164
31 82 113
32 5 167
33 14 132
34 32 144
35 63 198
36 13 130
37 41 177
38 1 179
39 12 175
40 77 171
41 16 156
42 44 106
43 35 173
44 95 160
45 91 145
46 18 151
47 43 107
48 40 165
49 17 137
50 23 133
51 76 180
52 15 149
53 49 100
54 54 126
55 21 123
56 22 187
57 87 178
58 36 112
59 71 140
60 64 183
61 78 114
62 80 172
63 46 138
64 55 163
65 99 181
66 25 146
67 68 120
68 61 155
69 4 194
70 66 127
71 39 111
72 38 191
73 69 118
74 52 136
75 72 150
76 84 199
77 92 101
78 10 147
79 2 129
80 94 134
81 0 161
82 89 168
83 20 122
84 85 141
85 48 121
86 29 157
87 74 128
88 79 135
89 19 166
90 37 174
91 45 188
92 24 189
93 8 116
94 67 193
95 9 131
96 81 196
97 47 197
98 30 148
99 62 169
100 50 110
