hr_data/kroB200 heuristic results iteration 35:
1 71 188
2 36 189
3 64 116
4 78 193
5 80 131
6 46 196
7 55 197
8 99 148
9 25 169
10 68 110
11 61 137
12 4 165
13 66 107
14 39 151
15 38 145
16 69 160
17 52 173
18 72 106
19 84 174
20 92 166
21 10 135
22 2 128
23 27 157
24 90 121
25 96 141
26 98 122
27 7 133
28 28 180
29 31 149
30 58 100
31 75 126
32 97 123
33 11 187
34 70 178
35 26 112
36 60 140
37 34 183
38 93 114
39 56 162
40 33 153
41 6 190
42 83 176
43 57 142
44 51 170
45 53 103
46 42 143
47 88 192
48 86 159
49 59 152
50 73 104
51 65 102
52 3 182
53 82 139
54 5 105
55 14 158
56 32 184
57 63 117
58 13 124
59 41 119
60 1 108
61 12 109
62 77 125
63 16 186
64 44 154
65 35 191
66 95 118
67 91 136
68 18 150
69 43 199
70 40 101
71 17 147
72 23 129
73 76 134
74 15 161
75 49 163
76 54 115
77 21 195
78 22 185
79 87 164
80 79 113
81 19 167
82 37 132
83 85 144
84 48 198
85 29 130
86 74 177
87 67 179
88 9 175
89 20 171
90 89 156
91 0 168
92 94 172
93 45 138
94 24 181
95 8 146
96 81 120
97 47 155
98 30 194
99 62 127
100 50 111
