hr_data/kroB200 heuristic results iteration 76:
1 71 182
2 36 139
3 64 105
4 78 102
5 80 158
6 46 184
7 55 117
8 99 124
9 25 119
10 68 108
11 61 109
12 4 125
13 66 186
14 39 154
15 38 191
16 69 118
17 52 136
18 72 150
19 84 199
20 92 101
21 10 147
22 2 129
23 27 134
24 90 161
25 96 152
26 98 159
27 7 143
28 28 103
29 31 192
30 58 170
31 75 142
32 97 176
33 11 153
34 70 190
35 26 162
36 60 115
37 34 195
38 93 185
39 56 164
40 33 113
41 6 167
42 83 132
43 57 144
44 51 198
45 53 130
46 42 177
47 88 179
48 86 175
49 59 171
50 73 156
51 65 106
52 3 173
53 82 160
54 5 145
55 14 151
56 32 107
57 63 165
58 13 137
59 41 133
60 1 180
61 12 149
62 77 100
63 16 126
64 44 123
65 35 187
66 95 178
67 91 112
68 18 140
69 43 183
70 40 114
71 17 172
72 23 138
73 76 163
74 15 104
75 49 181
76 54 146
77 21 120
78 22 155
79 87 194
80 79 127
81 19 111
82 37 168
83 85 122
84 48 141
85 29 121
86 74 157
87 67 128
88 9 135
89 20 166
90 89 174
91 0 188
92 94 189
93 45 116
94 24 193
95 8 131
96 81 196
97 47 197
98 30 148
99 62 169
100 50 110
