hr_data/kroB200 heuristic results iteration 18:
1 54 166
2 21 174
3 22 135
4 87 128
5 53 157
6 51 121
7 57 141
8 83 122
9 6 165
10 56 107
11 93 151
12 60 137
13 34 133
14 26 180
15 70 149
16 11 100
17 97 126
18 94 123
19 0 187
20 89 178
21 20 112
22 85 140
23 48 183
24 29 114
25 74 162
26 79 153
27 19 190
28 37 176
29 45 142
30 24 170
31 8 103
32 33 143
33 71 192
34 36 159
35 64 152
36 78 104
37 80 102
38 46 182
39 55 139
40 99 105
41 25 158
42 68 184
43 61 117
44 4 124
45 66 119
46 39 108
47 38 109
48 69 125
49 52 186
50 72 154
51 84 191
52 92 118
53 10 136
54 2 150
55 27 199
56 90 101
57 96 147
58 98 129
59 7 134
60 28 161
61 31 163
62 58 115
63 75 195
64 9 185
65 67 164
66 73 113
67 59 167
68 86 132
69 88 144
70 42 198
71 49 130
72 76 177
73 23 179
74 17 175
75 44 171
76 35 156
77 16 106
78 40 173
79 91 160
80 18 145
81 95 168
82 43 172
83 77 138
84 12 181
85 1 146
86 41 120
87 13 155
88 63 194
89 81 127
90 32 111
91 14 110
92 5 189
93 3 116
94 82 193
95 65 131
96 15 196
97 62 197
98 30 148
99 47 169
100 50 188
