hr_data/kroB200 heuristic results iteration 52:
1 28 174
2 7 166
3 98 135
4 75 128
5 58 157
6 31 121
7 97 141
8 11 122
9 70 165
10 26 107
11 60 151
12 34 137
13 93 133
14 56 180
15 33 149
16 6 100
17 83 126
18 57 123
19 51 187
20 53 178
21 42 112
22 88 140
23 86 183
24 59 114
25 73 162
26 65 153
27 3 190
28 82 176
29 5 142
30 14 170
31 32 103
32 63 143
33 13 192
34 41 159
35 1 152
36 12 104
37 77 102
38 16 182
39 44 139
40 35 105
41 95 158
42 91 184
43 18 117
44 43 124
45 40 119
46 17 108
47 23 109
48 76 125
49 15 186
50 49 154
51 54 191
52 21 118
53 22 136
54 87 150
55 36 199
56 71 101
57 64 147
58 78 129
59 80 134
60 46 161
61 55 163
62 99 115
63 25 195
64 68 185
65 61 164
66 4 113
67 66 167
68 39 132
69 38 144
70 69 198
71 52 130
72 72 177
73 84 179
74 92 175
75 10 171
76 2 156
77 27 106
78 90 173
79 96 160
80 94 145
81 0 168
82 89 172
83 20 138
84 85 181
85 48 146
86 29 120
87 74 155
88 79 194
89 19 127
90 37 111
91 45 110
92 24 189
93 8 116
94 67 193
95 9 131
96 81 196
97 47 197
98 30 148
99 62 169
100 50 188
