hr_data/kroB200 heuristic results iteration 38:
1 43 187
2 91 123
3 18 126
4 95 112
5 35 178
6 44 140
7 16 183
8 40 114
9 77 162
10 12 153
11 1 190
12 41 176
13 13 142
14 63 170
15 81 103
16 32 143
17 14 192
18 5 159
19 3 152
20 82 104
21 86 102
22 59 182
23 73 139
24 65 105
25 93 158
26 56 184
27 33 117
28 6 124
29 83 119
30 57 108
31 51 109
32 53 125
33 42 186
34 88 154
35 49 191
36 54 118
37 21 136
38 22 150
39 87 199
40 36 101
41 71 147
42 64 129
43 78 134
44 80 161
45 46 163
46 55 115
47 99 195
48 25 185
49 68 164
50 61 113
51 4 167
52 66 132
53 39 144
54 38 198
55 69 130
56 52 177
57 72 179
58 84 175
59 92 171
60 10 156
61 2 106
62 27 173
63 90 160
64 96 145
65 98 151
66 7 107
67 28 165
68 31 137
69 58 133
70 75 180
71 97 149
72 11 100
73 70 193
74 26 131
75 60 196
76 34 116
77 8 189
78 24 188
79 45 110
80 89 169
81 0 148
82 94 197
83 20 121
84 85 141
85 48 122
86 29 157
87 74 128
88 79 135
89 19 166
90 37 174
91 67 168
92 9 172
93 76 138
94 23 181
95 17 146
96 15 120
97 62 155
98 30 194
99 47 127
100 50 111
