hr_data/kroB200 heuristic results iteration 32:
1 53 186
2 51 125
3 57 154
4 83 108
5 6 109
6 56 119
7 93 124
8 60 117
9 34 184
10 26 158
11 70 139
12 11 182
13 97 105
14 94 102
15 0 104
16 89 152
17 20 159
18 85 143
19 48 103
20 29 192
21 74 170
22 79 142
23 19 176
24 37 153
25 45 190
26 24 162
27 8 115
28 33 195
29 71 185
30 36 164
31 64 113
32 78 167
33 80 132
34 46 144
35 55 198
36 99 130
37 25 177
38 68 179
39 61 175
40 4 171
41 66 156
42 39 106
43 38 173
44 69 160
45 52 145
46 72 151
47 84 107
48 92 165
49 10 137
50 2 133
51 27 180
52 90 149
53 96 100
54 98 126
55 7 123
56 28 187
57 31 178
58 58 112
59 75 140
60 9 183
61 67 114
62 73 172
63 59 138
64 86 163
65 88 181
66 42 146
67 49 120
68 54 155
69 21 194
70 22 127
71 87 111
72 23 191
73 17 118
74 76 136
75 15 150
76 1 199
77 12 101
78 77 147
79 16 129
80 44 134
81 35 161
82 95 168
83 91 122
84 18 141
85 43 121
86 40 157
87 62 128
88 30 135
89 47 166
90 81 174
91 63 188
92 13 189
93 41 116
94 32 193
95 14 131
96 5 196
97 3 197
98 82 148
99 65 169
100 50 110
