hr_data/kroB200 heuristic results iteration 10:
1 14 146
2 32 120
3 5 155
4 3 194
5 82 109
6 63 108
7 13 154
8 41 125
9 1 186
10 12 191
11 77 118
12 16 136
13 44 150
14 35 199
15 95 101
16 91 147
17 18 129
18 43 134
19 40 161
20 17 152
21 23 159
22 76 143
23 15 103
24 49 192
25 42 170
26 88 142
27 86 176
28 59 153
29 73 190
30 65 162
31 93 115
32 56 195
33 33 185
34 6 164
35 83 113
36 57 167
37 51 132
38 53 144
39 71 198
40 36 130
41 64 177
42 78 179
43 80 175
44 46 171
45 55 156
46 99 106
47 25 173
48 68 160
49 61 145
50 4 151
51 66 107
52 39 165
53 38 137
54 69 133
55 52 180
56 72 149
57 84 100
58 92 126
59 10 123
60 2 187
61 27 178
62 90 112
63 96 140
64 98 183
65 7 114
66 28 172
67 31 138
68 58 163
69 75 158
70 97 184
71 11 117
72 70 105
73 26 139
74 60 182
75 34 102
76 8 104
77 24 119
78 45 124
79 89 181
80 0 111
81 94 127
82 20 168
83 85 122
84 48 141
85 29 121
86 74 157
87 79 128
88 19 135
89 37 166
90 67 174
91 9 188
92 87 189
93 21 116
94 22 193
95 54 131
96 81 196
97 47 197
98 30 148
99 62 169
100 50 110
