hr_data/kroB200 heuristic results iteration 95:
1 92 144
2 10 132
3 2 167
4 27 113
5 90 164
6 96 185
7 98 195
8 7 115
9 28 162
10 31 153
11 58 190
12 75 176
13 97 142
14 11 170
15 70 103
16 26 143
17 60 192
18 34 159
19 93 152
20 56 104
21 33 102
22 6 182
23 83 139
24 57 105
25 51 158
26 53 184
27 42 117
28 88 124
29 86 119
30 59 108
31 73 109
32 65 125
33 3 186
34 82 154
35 5 191
36 14 118
37 32 136
38 63 150
39 13 199
40 41 101
41 1 147
42 12 129
43 77 134
44 16 161
45 44 163
46 35 138
47 95 172
48 91 114
49 18 183
50 43 140
51 40 123
52 17 126
53 23 187
54 76 178
55 15 112
56 49 100
57 54 149
58 21 133
59 22 180
60 87 137
61 36 165
62 71 107
63 64 151
64 78 145
65 80 160
66 46 173
67 55 106
68 99 174
69 25 166
70 68 135
71 61 128
72 4 157
73 66 121
74 39 141
75 38 122
76 69 110
77 52 189
78 72 116
79 84 193
80 9 131
81 67 196
82 85 197
83 48 148
84 29 169
85 74 188
86 79 168
87 19 179
88 37 175
89 45 177
90 24 130
91 8 198
92 89 156
93 0 171
94 94 181
95 20 146
96 81 120
97 47 155
98 30 194
99 62 127
100 50 111
