hr_data/kroB200 heuristic results iteration 87:
1 39 194
2 38 155
3 69 120
4 52 146
5 72 111
6 84 127
7 92 109
8 10 108
9 2 154
10 27 125
11 90 186
12 96 191
13 98 118
14 7 136
15 28 150
16 31 199
17 58 101
18 75 147
19 97 129
20 11 134
21 70 161
22 26 152
23 60 159
24 34 143
25 93 103
26 56 192
27 33 170
28 6 142
29 83 176
30 57 153
31 51 190
32 53 162
33 42 115
34 88 195
35 86 185
36 59 164
37 73 113
38 65 167
39 3 132
40 82 144
41 5 198
42 14 130
43 32 177
44 63 179
45 13 175
46 41 171
47 1 156
48 12 106
49 77 173
50 16 160
51 44 145
52 35 151
53 95 107
54 91 165
55 18 137
56 43 133
57 40 180
58 17 149
59 23 100
60 76 126
61 15 123
62 49 187
63 54 178
64 21 112
65 22 140
66 87 183
67 36 114
68 71 172
69 64 138
70 78 163
71 80 158
72 46 184
73 55 117
74 99 105
75 25 139
76 68 182
77 61 102
78 4 104
79 66 119
80 67 124
81 9 181
82 85 168
83 48 122
84 29 141
85 74 121
86 79 157
87 19 128
88 37 135
89 45 166
90 24 174
91 8 188
92 89 189
93 0 116
94 94 193
95 20 131
96 81 196
97 47 197
98 30 148
99 62 169
100 50 110
