hr_data/kroB200 heuristic results iteration 8:
1 87 118
2 21 136
3 22 150
4 54 199
5 49 101
6 42 147
7 88 191
8 86 154
9 59 125
10 73 186
11 65 108
12 3 109
13 82 119
14 5 124
15 14 117
16 32 184
17 63 158
18 13 139
19 41 182
20 1 105
21 12 102
22 77 104
23 16 152
24 44 159
25 35 143
26 95 103
27 91 192
28 18 170
29 43 142
30 40 176
31 17 153
32 23 190
33 76 162
34 15 115
35 81 195
36 47 185
37 30 164
38 62 113
39 50 167
40 51 132
41 53 144
42 57 198
43 83 130
44 6 177
45 56 179
46 93 175
47 60 171
48 34 156
49 26 106
50 70 173
51 11 160
52 97 145
53 94 151
54 0 107
55 89 165
56 20 137
57 85 133
58 48 180
59 29 149
60 74 100
61 79 126
62 19 123
63 37 187
64 45 178
65 24 112
66 8 140
67 33 183
68 71 114
69 36 172
70 64 138
71 78 163
72 80 181
73 46 146
74 55 120
75 99 155
76 25 194
77 68 127
78 61 111
79 4 161
80 66 134
81 39 129
82 38 168
83 69 122
84 52 141
85 72 121
86 84 157
87 92 128
88 10 135
89 2 166
90 27 174
91 90 188
92 96 189
93 98 116
94 7 193
95 28 131
96 31 196
97 58 197
98 75 148
99 9 169
100 67 110
