hr_data/kroB200 heuristic results iteration 6:
1 64 185
2 78 195
3 80 115
4 46 162
5 36 153
6 71 190
7 19 176
8 79 142
9 37 170
10 85 103
11 48 143
12 29 192
13 74 159
14 68 152
15 25 104
16 99 102
17 55 182
18 61 139
19 4 105
20 66 158
21 39 184
22 38 117
23 69 124
24 52 119
25 72 108
26 84 109
27 92 125
28 10 186
29 2 154
30 27 191
31 90 118
32 96 136
33 98 150
34 7 199
35 28 101
36 31 147
37 58 129
38 75 134
39 97 161
40 11 163
41 70 138
42 26 172
43 60 114
44 34 183
45 93 140
46 56 123
47 33 126
48 6 187
49 83 178
50 57 112
51 51 100
52 53 149
53 42 133
54 88 180
55 86 137
56 59 165
57 73 107
58 65 151
59 3 145
60 82 160
61 5 173
62 14 106
63 32 174
64 63 166
65 13 135
66 41 128
67 1 157
68 12 121
69 77 141
70 16 122
71 44 110
72 35 189
73 95 116
74 91 193
75 18 131
76 43 196
77 40 197
78 17 148
79 23 169
80 76 188
81 15 168
82 49 179
83 54 175
84 21 177
85 22 130
86 87 198
87 24 144
88 8 132
89 45 167
90 89 113
91 0 164
92 94 156
93 20 171
94 9 181
95 67 146
96 81 120
97 47 155
98 30 194
99 62 127
100 50 111
