hr_data/kroB200 heuristic results iteration 68:
1 79 198
2 19 130
3 37 177
4 85 179
5 48 175
6 29 171
7 74 156
8 68 144
9 25 132
10 99 167
11 55 113
12 61 164
13 4 185
14 66 195
15 39 115
16 38 162
17 69 153
18 52 190
19 72 176
20 84 142
21 92 170
22 10 103
23 2 143
24 27 192
25 90 159
26 96 152
27 98 104
28 7 102
29 28 182
30 31 139
31 58 105
32 75 158
33 97 184
34 11 117
35 70 124
36 26 119
37 60 108
38 34 109
39 93 125
40 56 186
41 33 154
42 6 191
43 83 118
44 57 136
45 51 150
46 53 199
47 42 101
48 88 147
49 86 129
50 59 134
51 73 161
52 65 163
53 3 138
54 82 172
55 5 114
56 14 183
57 32 140
58 63 123
59 13 126
60 41 187
61 1 178
62 12 112
63 77 100
64 16 149
65 44 133
66 35 180
67 95 137
68 91 165
69 18 107
70 43 151
71 40 145
72 17 160
73 23 173
74 76 106
75 15 174
76 49 166
77 54 135
78 21 128
79 22 157
80 87 121
81 36 141
82 71 122
83 64 110
84 78 189
85 80 116
86 46 193
87 45 131
88 24 196
89 8 197
90 89 148
91 0 169
92 94 188
93 20 168
94 9 181
95 67 146
96 81 120
97 47 155
98 30 194
99 62 127
100 50 111
