hr_data/kroB200 heuristic results iteration 30:
1 96 135
2 98 166
3 7 174
4 28 106
5 31 173
6 58 160
7 75 145
8 90 151
9 27 107
10 2 165
11 10 137
12 92 133
13 84 180
14 72 149
15 52 100
16 69 126
17 38 123
18 39 187
19 66 178
20 4 112
21 61 140
22 25 183
23 99 114
24 55 162
25 68 153
26 74 190
27 29 176
28 79 142
29 19 170
30 37 103
31 85 143
32 48 192
33 67 159
34 9 152
35 20 104
36 89 102
37 0 182
38 94 139
39 97 105
40 11 158
41 70 184
42 26 117
43 60 124
44 34 119
45 93 108
46 56 109
47 33 125
48 6 186
49 83 154
50 57 191
51 51 118
52 53 136
53 42 150
54 88 199
55 86 101
56 59 147
57 73 129
58 65 134
59 3 161
60 82 163
61 5 115
62 14 195
63 32 185
64 63 164
65 13 113
66 41 167
67 1 132
68 12 144
69 77 198
70 16 130
71 44 177
72 35 179
73 95 175
74 91 171
75 18 156
76 43 168
77 40 172
78 17 138
79 23 181
80 76 146
81 15 120
82 49 155
83 54 194
84 21 127
85 22 111
86 87 122
87 36 141
88 71 121
89 64 157
90 78 128
91 80 169
92 46 148
93 45 197
94 24 116
95 8 189
96 81 188
97 47 110
98 30 193
99 62 131
100 50 196
