hr_data/kroB200 heuristic results iteration 16:
1 89 199
2 0 101
3 94 150
4 97 136
5 11 118
6 70 161
7 26 134
8 60 129
9 34 147
10 93 191
11 56 154
12 33 125
13 6 186
14 83 108
15 57 109
16 51 119
17 53 124
18 42 117
19 88 184
20 86 158
21 59 139
22 73 182
23 65 105
24 3 102
25 82 104
26 5 152
27 14 159
28 32 143
29 63 103
30 13 192
31 41 170
32 1 142
33 12 176
34 77 153
35 16 190
36 44 162
37 35 115
38 95 195
39 91 185
40 18 164
41 43 113
42 40 167
43 17 132
44 23 144
45 76 198
46 15 130
47 49 177
48 54 179
49 21 175
50 22 171
51 87 156
52 36 106
53 71 173
54 64 160
55 78 145
56 80 151
57 46 107
58 55 165
59 99 137
60 25 133
61 68 180
62 61 149
63 4 100
64 66 126
65 39 123
66 38 187
67 69 178
68 52 112
69 72 140
70 84 183
71 92 114
72 10 172
73 2 138
74 27 163
75 90 181
76 96 146
77 98 120
78 7 155
79 28 194
80 31 127
81 58 111
82 75 168
83 20 122
84 85 141
85 48 121
86 29 157
87 74 128
88 79 135
89 19 166
90 37 174
91 45 188
92 24 189
93 8 116
94 67 193
95 9 131
96 81 196
97 47 197
98 30 148
99 62 169
100 50 110
