hr_data/kroB200 heuristic results iteration 19:
1 93 175
2 56 179
3 33 177
4 6 130
5 83 198
6 57 144
7 51 132
8 53 167
9 42 113
10 88 164
11 86 185
12 59 195
13 73 115
14 65 162
15 3 153
16 82 190
17 5 176
18 14 142
19 32 170
20 63 103
21 13 143
22 41 192
23 1 159
24 12 152
25 77 104
26 16 102
27 44 182
28 35 139
29 95 105
30 91 158
31 18 184
32 43 117
33 40 124
34 17 119
35 23 108
36 76 109
37 15 125
38 49 186
39 54 154
40 21 191
41 22 118
42 87 136
43 36 150
44 71 199
45 64 101
46 78 147
47 80 129
48 46 134
49 55 161
50 99 163
51 25 138
52 68 172
53 61 114
54 4 183
55 66 140
56 39 123
57 38 126
58 69 187
59 52 178
60 72 112
61 84 100
62 92 149
63 10 133
64 2 180
65 27 137
66 90 165
67 96 107
68 98 151
69 7 145
70 28 160
71 31 173
72 58 106
73 75 174
74 97 166
75 11 135
76 70 128
77 26 157
78 60 121
79 34 141
80 8 122
81 24 110
82 45 189
83 89 116
84 0 193
85 94 131
86 20 196
87 85 197
88 48 148
89 29 169
90 74 188
91 79 168
92 19 171
93 37 156
94 67 181
95 9 146
96 81 120
97 47 155
98 30 194
99 62 127
100 50 111
