hr_data/kroB200 heuristic results iteration 47:
1 43 167
2 91 113
3 18 132
4 95 144
5 35 198
6 44 130
7 16 177
8 40 179
9 77 175
10 12 171
11 1 156
12 41 164
13 13 185
14 63 195
15 81 115
16 32 162
17 14 153
18 5 190
19 3 176
20 82 142
21 86 170
22 59 103
23 73 143
24 65 192
25 93 159
26 56 152
27 33 104
28 6 102
29 83 182
30 57 139
31 51 105
32 53 158
33 42 184
34 88 117
35 49 124
36 54 119
37 21 108
38 22 109
39 87 125
40 36 186
41 71 154
42 64 191
43 78 118
44 80 136
45 46 150
46 55 199
47 99 101
48 25 147
49 68 129
50 61 134
51 4 161
52 66 163
53 39 138
54 38 172
55 69 114
56 52 183
57 72 140
58 84 123
59 92 126
60 10 187
61 2 178
62 27 112
63 90 100
64 96 149
65 98 133
66 7 180
67 28 137
68 31 165
69 58 107
70 75 151
71 97 145
72 11 160
73 70 173
74 26 106
75 60 174
76 34 166
77 8 135
78 24 128
79 45 157
80 89 121
81 0 141
82 94 122
83 20 110
84 85 189
85 48 116
86 29 193
87 74 131
88 79 196
89 19 197
90 37 148
91 67 169
92 9 188
93 76 168
94 23 181
95 17 146
96 15 120
97 62 155
98 30 194
99 47 127
100 50 111
