hr_data/kroB200 heuristic results iteration 86:
1 3 163
2 82 158
3 5 184
4 14 117
5 32 105
6 63 139
7 13 182
8 41 102
9 1 104
10 12 152
11 77 159
12 16 143
13 44 103
14 35 192
15 95 170
16 91 142
17 18 176
18 43 153
19 40 190
20 17 162
21 23 115
22 76 195
23 15 185
24 49 164
25 42 113
26 88 167
27 86 132
28 59 144
29 73 198
30 65 130
31 93 177
32 56 179
33 33 175
34 6 171
35 83 156
36 57 106
37 51 173
38 53 160
39 71 145
40 36 151
41 64 107
42 78 165
43 80 137
44 46 133
45 55 180
46 99 149
47 25 100
48 68 126
49 61 123
50 4 187
51 66 178
52 39 112
53 38 140
54 69 183
55 52 114
56 72 172
57 84 138
58 92 168
59 10 122
60 2 141
61 27 121
62 90 157
63 96 128
64 98 135
65 7 166
66 28 174
67 31 188
68 58 189
69 75 116
70 97 193
71 11 131
72 70 196
73 26 197
74 60 148
75 34 169
76 8 110
77 24 181
78 45 124
79 89 119
80 0 108
81 94 109
82 20 125
83 85 186
84 48 154
85 29 191
86 74 118
87 79 136
88 19 150
89 37 199
90 67 101
91 9 147
92 87 129
93 21 134
94 22 161
95 54 120
96 81 146
97 47 111
98 30 127
99 62 155
100 50 194
