hr_data/kroB200 heuristic results iteration 42:
1 45 133
2 24 180
3 8 137
4 26 165
5 60 107
6 34 151
7 93 145
8 56 160
9 33 173
10 6 106
11 83 174
12 57 166
13 51 135
14 53 128
15 42 157
16 88 121
17 86 141
18 59 122
19 73 110
20 65 189
21 3 116
22 82 193
23 5 131
24 14 196
25 32 197
26 63 148
27 13 169
28 41 188
29 1 149
30 12 100
31 77 126
32 16 123
33 44 187
34 35 178
35 95 112
36 91 140
37 18 183
38 43 114
39 40 162
40 17 153
41 23 190
42 76 176
43 15 142
44 49 170
45 54 103
46 21 143
47 22 192
48 87 159
49 36 152
50 71 104
51 64 102
52 78 182
53 80 139
54 46 105
55 55 158
56 99 184
57 25 117
58 68 124
59 61 119
60 4 108
61 66 109
62 39 125
63 38 186
64 69 154
65 52 191
66 72 118
67 84 136
68 92 150
69 10 199
70 2 101
71 27 147
72 90 129
73 96 134
74 98 161
75 7 163
76 28 115
77 31 195
78 58 185
79 75 164
80 97 113
81 11 167
82 70 132
83 0 144
84 94 198
85 89 130
86 20 177
87 85 179
88 48 175
89 29 171
90 74 156
91 79 168
92 19 172
93 37 138
94 67 181
95 9 146
96 81 120
97 47 155
98 30 194
99 62 127
100 50 111
