kroA200 heuristic results:
1 170 109
2 199 28
3 97 183
4 113 36
5 87 178
6 147 62
7 27 193
8 38 50
9 37 15
10 70 117
11 55 123
12 151 137
13 177 8
14 195 77
15 4 81
16 104 6
17 42 198
18 136 25
19 132 60
20 175 135
21 112 31
22 194 23
23 181 171
24 93 45
25 94 120
26 85 173
27 138 158
28 129 116
29 71 114
30 82 110
31 61 52
32 49 0
33 184 131
34 167 84
35 172 144
36 22 14
37 143 122
38 149 197
39 90 190
40 75 26
41 69 39
42 101 146
43 153 11
44 20 162
45 139 92
46 163 105
47 88 191
48 40 13
49 29 107
50 67 3
51 168 100
52 34 59
53 1 192
54 180 127
55 124 166
56 160 58
57 150 2
58 79 72
59 76 188
60 157 68
61 64 141
62 176 130
63 12 179
64 78 73
65 159 56
66 161 35
67 63 99
68 19 155
69 54 32
70 41 44
71 134 196
72 185 80
73 126 96
74 111 103
75 119 164
76 46 165
77 66 95
78 30 125
79 156 86
80 106 51
81 108 10
82 5 83
83 186 47
84 53 169
85 74 121
86 154 115
87 182 187
88 133 43
89 21 152
90 7 65
91 128 118
92 145 91
93 102 9
94 16 174
95 24 98
96 142 18
97 89 148
98 33 189
99 57 48
100 140 17
