kroB200 heuristic results:
1 64 124
2 66 150
3 46 186
4 126 53
5 19 5
6 78 108
7 122 182
8 197 154
9 26 111
10 84 119
11 0 30
12 52 185
13 116 134
14 110 41
15 131 54
16 39 63
17 11 161
18 45 159
19 171 176
20 173 12
21 31 14
22 135 190
23 60 144
24 25 114
25 198 158
26 8 23
27 137 120
28 123 109
29 36 17
30 183 6
31 28 81
32 48 77
33 92 117
34 100 15
35 107 50
36 174 62
37 9 115
38 98 43
39 148 152
40 189 65
41 178 47
42 187 83
43 193 51
44 121 86
45 169 125
46 10 95
47 165 164
48 96 103
49 80 44
50 196 118
51 99 18
52 179 91
53 130 32
54 141 155
55 68 73
56 188 56
57 72 35
58 2 13
59 58 191
60 166 105
61 157 162
62 29 146
63 67 3
64 34 59
65 168 127
66 20 192
67 69 76
68 75 40
69 149 88
70 90 153
71 93 139
72 94 163
73 112 101
74 175 143
75 85 181
76 4 194
77 177 132
78 151 136
79 55 42
80 70 104
81 37 195
82 38 147
83 27 87
84 97 199
85 140 170
86 33 57
87 89 113
88 24 102
89 145 142
90 128 16
91 7 21
92 133 82
93 74 129
94 106 138
95 156 49
96 71 184
97 61 167
98 180 172
99 160 22
100 79 1
